*SPEF "ieee 1481-1999"
*DESIGN "self_diagnosing_fir"
*DATE "23:06:15 Friday September 18, 2026"
*VENDOR "The OpenROAD Project"
*PROGRAM "OpenROAD"
*VERSION "dcf36133a369abc8f3c5e5738cd4d82e4903c0e0"
*DESIGN_FLOW "NAME_SCOPE LOCAL" "PIN_CAP NONE"
*DIVIDER /
*DELIMITER :
*BUS_DELIMITER []
*T_UNIT 1 NS
*C_UNIT 1 PF
*R_UNIT 1 OHM
*L_UNIT 1 HENRY

*NAME_MAP
*3 clk
*4 diag_busy
*5 diag_done
*6 net
*7 net39
*8 net40
*9 net41
*10 net42
*11 net43
*12 net44
*13 net45
*14 net46
*15 net47
*16 net48
*17 h0[0]
*18 h0[1]
*19 h0[2]
*20 h0[3]
*21 h1[0]
*22 h1[1]
*23 h1[2]
*24 h1[3]
*25 h2[0]
*26 h2[1]
*27 h2[2]
*28 h2[3]
*29 h3[0]
*30 h3[1]
*31 h3[2]
*32 h3[3]
*33 rst
*34 start_diag
*35 x[0]
*36 x[1]
*37 x[2]
*38 x[3]
*39 y[0]
*40 y[1]
*41 y[2]
*42 y[3]
*43 y[4]
*44 y[5]
*45 y[6]
*46 y[7]
*47 y[8]
*48 y[9]
*49 _000_
*50 _001_
*51 _002_
*52 _003_
*53 _004_
*54 _005_
*55 _006_
*56 _007_
*57 _008_
*58 _009_
*59 _010_
*60 _011_
*61 _012_
*62 _013_
*63 _014_
*64 _015_
*65 _016_
*66 _017_
*67 _018_
*68 _019_
*69 _020_
*70 _021_
*71 _022_
*72 _023_
*73 _024_
*74 _025_
*75 _026_
*76 _027_
*77 _028_
*78 _029_
*79 _030_
*80 _031_
*81 _032_
*82 _033_
*83 _034_
*84 _035_
*85 _036_
*86 _037_
*87 _038_
*88 _039_
*89 _040_
*90 _041_
*91 _042_
*92 _043_
*93 _044_
*94 _045_
*95 _046_
*96 _047_
*97 _048_
*98 _049_
*99 _050_
*100 _051_
*101 _052_
*102 _053_
*103 _054_
*104 _055_
*105 _056_
*106 _057_
*107 _058_
*108 _059_
*109 _060_
*110 _061_
*111 _062_
*112 _063_
*113 _064_
*114 _065_
*115 _066_
*116 _067_
*117 _068_
*118 _069_
*119 _070_
*120 _071_
*121 _072_
*122 _073_
*123 _074_
*124 _075_
*125 _076_
*126 _077_
*127 _078_
*128 _079_
*129 _080_
*130 _081_
*131 _082_
*132 _083_
*133 _084_
*134 _085_
*135 _086_
*136 _087_
*137 _088_
*138 _089_
*139 _090_
*140 _091_
*141 _092_
*142 _093_
*143 _094_
*144 _095_
*145 _096_
*146 _097_
*147 _098_
*148 _099_
*149 _100_
*150 _101_
*151 _102_
*152 _103_
*153 _104_
*154 _105_
*155 _106_
*156 _107_
*157 _108_
*158 _109_
*159 _110_
*160 _111_
*161 _112_
*162 _113_
*163 _114_
*164 _115_
*165 _116_
*166 _117_
*167 _118_
*168 _119_
*169 _120_
*170 _121_
*171 _122_
*172 _123_
*173 _124_
*174 _125_
*175 _126_
*176 _127_
*177 _128_
*178 _129_
*179 _130_
*180 _131_
*181 _132_
*182 _133_
*183 _134_
*184 _135_
*185 _136_
*186 _137_
*187 _138_
*188 _139_
*189 _140_
*190 _141_
*191 _142_
*192 _143_
*193 _144_
*194 _145_
*195 _146_
*196 _147_
*197 _148_
*198 _149_
*199 _150_
*200 _151_
*201 _152_
*202 _153_
*203 _154_
*204 _155_
*205 _156_
*206 _157_
*207 _158_
*208 _159_
*209 _160_
*210 _161_
*211 _162_
*212 _163_
*213 _164_
*214 _165_
*215 _166_
*216 _167_
*217 _168_
*218 _169_
*219 _170_
*220 _171_
*221 _172_
*222 _173_
*223 _174_
*224 _175_
*225 _176_
*226 _177_
*227 _178_
*228 _179_
*229 _180_
*230 _181_
*231 _182_
*232 _183_
*233 _184_
*234 _185_
*235 _186_
*236 _187_
*237 _188_
*238 _189_
*239 _190_
*240 _191_
*241 _192_
*242 _193_
*243 _194_
*244 _195_
*245 _196_
*246 _197_
*247 _198_
*248 _199_
*249 _200_
*250 _201_
*251 _202_
*252 _203_
*253 _204_
*254 _205_
*255 _206_
*256 _207_
*257 _208_
*258 _209_
*259 _210_
*260 _211_
*261 _212_
*262 _213_
*263 _214_
*264 _215_
*265 _216_
*266 _217_
*267 _218_
*268 _219_
*269 _220_
*270 _221_
*271 _222_
*272 _223_
*273 _224_
*274 _225_
*275 _226_
*276 _227_
*277 _228_
*278 _229_
*279 _230_
*280 _231_
*281 _232_
*282 _233_
*283 _234_
*284 _235_
*285 _236_
*286 _237_
*287 _238_
*288 _239_
*289 _240_
*290 _241_
*291 _242_
*292 _243_
*293 _244_
*294 _245_
*295 _246_
*296 _247_
*297 _248_
*298 _249_
*299 _250_
*300 _251_
*301 _252_
*302 _253_
*303 _254_
*304 _255_
*305 _256_
*306 _257_
*307 _258_
*308 _259_
*309 _260_
*310 _261_
*311 _262_
*312 _263_
*313 _264_
*314 _265_
*315 _266_
*316 _267_
*317 _268_
*318 _269_
*319 _270_
*320 _271_
*321 _272_
*322 _273_
*323 _274_
*324 _275_
*325 _276_
*326 _277_
*327 _278_
*328 _279_
*329 _280_
*330 _281_
*331 _282_
*332 _283_
*333 _284_
*334 _285_
*335 _286_
*336 _287_
*337 _288_
*338 _289_
*339 _290_
*340 _291_
*341 _292_
*342 _293_
*343 _294_
*344 _295_
*345 _296_
*346 _297_
*347 _298_
*348 _299_
*349 _300_
*350 _301_
*351 _302_
*352 _303_
*353 _304_
*354 _305_
*355 _306_
*356 _307_
*357 _308_
*358 _309_
*359 _310_
*360 _311_
*361 _312_
*362 _313_
*363 _314_
*364 _315_
*365 _316_
*366 _317_
*367 _318_
*368 _319_
*369 _320_
*370 _321_
*371 _322_
*372 _323_
*373 _324_
*374 _325_
*375 _326_
*376 _327_
*377 _328_
*378 _329_
*379 _330_
*380 _331_
*381 _332_
*382 _333_
*383 _334_
*384 _335_
*385 _336_
*386 _337_
*387 _338_
*388 _339_
*389 _340_
*390 _341_
*391 _342_
*392 _343_
*393 _344_
*394 _345_
*395 _346_
*396 _347_
*397 _348_
*398 _349_
*399 _350_
*400 _351_
*401 _352_
*402 _353_
*403 _354_
*404 _355_
*405 _356_
*406 _357_
*407 _358_
*408 _359_
*409 _360_
*410 _361_
*411 _362_
*412 _363_
*413 _364_
*414 _365_
*415 _366_
*416 _367_
*417 _368_
*418 clknet_0_clk
*419 clknet_2_0__leaf_clk
*420 clknet_2_1__leaf_clk
*421 clknet_2_2__leaf_clk
*422 clknet_2_3__leaf_clk
*423 controller\.state\[0\]
*424 controller\.state\[10\]
*425 controller\.state\[11\]
*426 controller\.state\[1\]
*427 controller\.state\[2\]
*428 controller\.state\[3\]
*429 controller\.state\[4\]
*430 controller\.state\[5\]
*431 controller\.state\[6\]
*432 controller\.state\[7\]
*433 controller\.state\[8\]
*434 controller\.state\[9\]
*435 controller\.test_x\[0\]
*436 controller\.test_x\[1\]
*437 controller\.test_x\[2\]
*438 diagnostic\.x0\[0\]
*439 diagnostic\.x0\[1\]
*440 diagnostic\.x0\[2\]
*441 diagnostic\.x0\[3\]
*442 diagnostic\.x1\[0\]
*443 diagnostic\.x1\[1\]
*444 diagnostic\.x1\[2\]
*445 diagnostic\.x1\[3\]
*446 diagnostic\.x2\[0\]
*447 diagnostic\.x2\[1\]
*448 diagnostic\.x2\[2\]
*449 diagnostic\.x2\[3\]
*450 diagnostic\.x3\[0\]
*451 diagnostic\.x3\[1\]
*452 diagnostic\.x3\[2\]
*453 diagnostic\.x3\[3\]
*454 net1
*455 net10
*456 net100
*457 net101
*458 net102
*459 net103
*460 net104
*461 net105
*462 net106
*463 net107
*464 net108
*465 net11
*466 net12
*467 net13
*468 net14
*469 net15
*470 net16
*471 net17
*472 net18
*473 net19
*474 net2
*475 net20
*476 net21
*477 net22
*478 net23
*479 net24
*480 net25
*481 net26
*482 net27
*483 net28
*484 net29
*485 net3
*486 net30
*487 net31
*488 net32
*489 net33
*490 net34
*491 net35
*492 net36
*493 net37
*494 net38
*495 net4
*496 net49
*497 net5
*498 net50
*499 net51
*500 net52
*501 net53
*502 net54
*503 net55
*504 net56
*505 net57
*506 net6
*507 net62
*508 net63
*509 net64
*510 net65
*511 net69
*512 net7
*513 net70
*514 net8
*515 net86
*516 net87
*517 net88
*518 net89
*519 net9
*520 net90
*521 net91
*522 net92
*523 net93
*524 net94
*525 net95
*526 net96
*527 net97
*528 net98
*529 net99
*530 FILLER_0_121
*531 FILLER_0_124
*532 FILLER_0_135
*533 FILLER_0_138
*534 FILLER_0_150
*535 FILLER_0_156
*536 FILLER_0_159
*537 FILLER_0_162
*538 FILLER_0_165
*539 FILLER_0_169
*540 FILLER_0_172
*541 FILLER_0_175
*542 FILLER_0_178
*543 FILLER_0_181
*544 FILLER_0_184
*545 FILLER_0_191
*546 FILLER_0_194
*547 FILLER_0_197
*548 FILLER_0_200
*549 FILLER_0_35
*550 FILLER_0_49
*551 FILLER_0_91
*552 FILLER_0_94
*553 FILLER_10_100
*554 FILLER_10_115
*555 FILLER_10_118
*556 FILLER_10_137
*557 FILLER_10_141
*558 FILLER_10_144
*559 FILLER_10_147
*560 FILLER_10_163
*561 FILLER_10_166
*562 FILLER_10_169
*563 FILLER_10_172
*564 FILLER_10_175
*565 FILLER_10_197
*566 FILLER_10_200
*567 FILLER_10_25
*568 FILLER_10_46
*569 FILLER_10_49
*570 FILLER_10_85
*571 FILLER_11_111
*572 FILLER_11_113
*573 FILLER_11_116
*574 FILLER_11_130
*575 FILLER_11_133
*576 FILLER_11_136
*577 FILLER_11_139
*578 FILLER_11_142
*579 FILLER_11_145
*580 FILLER_11_148
*581 FILLER_11_151
*582 FILLER_11_154
*583 FILLER_11_157
*584 FILLER_11_160
*585 FILLER_11_169
*586 FILLER_11_172
*587 FILLER_11_3
*588 FILLER_11_47
*589 FILLER_11_57
*590 FILLER_11_6
*591 FILLER_11_72
*592 FILLER_12_103
*593 FILLER_12_126
*594 FILLER_12_129
*595 FILLER_12_132
*596 FILLER_12_135
*597 FILLER_12_138
*598 FILLER_12_147
*599 FILLER_12_153
*600 FILLER_12_163
*601 FILLER_12_182
*602 FILLER_12_185
*603 FILLER_12_197
*604 FILLER_12_200
*605 FILLER_12_23
*606 FILLER_12_26
*607 FILLER_12_3
*608 FILLER_12_49
*609 FILLER_12_74
*610 FILLER_12_81
*611 FILLER_12_85
*612 FILLER_12_88
*613 FILLER_13_11
*614 FILLER_13_113
*615 FILLER_13_116
*616 FILLER_13_119
*617 FILLER_13_122
*618 FILLER_13_125
*619 FILLER_13_139
*620 FILLER_13_14
*621 FILLER_13_146
*622 FILLER_13_149
*623 FILLER_13_152
*624 FILLER_13_155
*625 FILLER_13_165
*626 FILLER_13_17
*627 FILLER_13_176
*628 FILLER_13_179
*629 FILLER_13_182
*630 FILLER_13_185
*631 FILLER_13_30
*632 FILLER_13_33
*633 FILLER_13_36
*634 FILLER_13_45
*635 FILLER_13_57
*636 FILLER_13_60
*637 FILLER_13_76
*638 FILLER_14_100
*639 FILLER_14_119
*640 FILLER_14_12
*641 FILLER_14_122
*642 FILLER_14_135
*643 FILLER_14_138
*644 FILLER_14_141
*645 FILLER_14_144
*646 FILLER_14_147
*647 FILLER_14_155
*648 FILLER_14_158
*649 FILLER_14_182
*650 FILLER_14_197
*651 FILLER_14_200
*652 FILLER_14_25
*653 FILLER_14_29
*654 FILLER_14_32
*655 FILLER_14_35
*656 FILLER_14_46
*657 FILLER_14_49
*658 FILLER_14_52
*659 FILLER_14_72
*660 FILLER_14_75
*661 FILLER_14_82
*662 FILLER_15_100
*663 FILLER_15_103
*664 FILLER_15_106
*665 FILLER_15_109
*666 FILLER_15_113
*667 FILLER_15_116
*668 FILLER_15_119
*669 FILLER_15_129
*670 FILLER_15_132
*671 FILLER_15_135
*672 FILLER_15_138
*673 FILLER_15_141
*674 FILLER_15_148
*675 FILLER_15_155
*676 FILLER_15_161
*677 FILLER_15_164
*678 FILLER_15_167
*679 FILLER_15_169
*680 FILLER_15_172
*681 FILLER_15_196
*682 FILLER_15_3
*683 FILLER_15_36
*684 FILLER_15_39
*685 FILLER_15_42
*686 FILLER_15_51
*687 FILLER_15_54
*688 FILLER_15_57
*689 FILLER_15_60
*690 FILLER_15_63
*691 FILLER_15_72
*692 FILLER_15_75
*693 FILLER_15_78
*694 FILLER_15_81
*695 FILLER_15_84
*696 FILLER_15_87
*697 FILLER_15_90
*698 FILLER_16_101
*699 FILLER_16_104
*700 FILLER_16_107
*701 FILLER_16_110
*702 FILLER_16_113
*703 FILLER_16_116
*704 FILLER_16_119
*705 FILLER_16_129
*706 FILLER_16_161
*707 FILLER_16_164
*708 FILLER_16_167
*709 FILLER_16_197
*710 FILLER_16_200
*711 FILLER_16_27
*712 FILLER_16_29
*713 FILLER_16_3
*714 FILLER_16_45
*715 FILLER_16_59
*716 FILLER_16_62
*717 FILLER_16_65
*718 FILLER_16_68
*719 FILLER_16_71
*720 FILLER_16_74
*721 FILLER_16_77
*722 FILLER_16_80
*723 FILLER_16_83
*724 FILLER_16_85
*725 FILLER_17_101
*726 FILLER_17_104
*727 FILLER_17_107
*728 FILLER_17_110
*729 FILLER_17_113
*730 FILLER_17_116
*731 FILLER_17_125
*732 FILLER_17_128
*733 FILLER_17_134
*734 FILLER_17_137
*735 FILLER_17_140
*736 FILLER_17_145
*737 FILLER_17_148
*738 FILLER_17_163
*739 FILLER_17_166
*740 FILLER_17_169
*741 FILLER_17_172
*742 FILLER_17_181
*743 FILLER_17_3
*744 FILLER_17_38
*745 FILLER_17_41
*746 FILLER_17_44
*747 FILLER_17_47
*748 FILLER_17_50
*749 FILLER_17_53
*750 FILLER_17_57
*751 FILLER_17_6
*752 FILLER_17_60
*753 FILLER_17_63
*754 FILLER_17_78
*755 FILLER_17_9
*756 FILLER_17_92
*757 FILLER_17_95
*758 FILLER_17_98
*759 FILLER_18_100
*760 FILLER_18_127
*761 FILLER_18_135
*762 FILLER_18_138
*763 FILLER_18_154
*764 FILLER_18_194
*765 FILLER_18_197
*766 FILLER_18_200
*767 FILLER_18_25
*768 FILLER_18_29
*769 FILLER_18_32
*770 FILLER_18_53
*771 FILLER_18_56
*772 FILLER_18_59
*773 FILLER_18_85
*774 FILLER_19_107
*775 FILLER_19_110
*776 FILLER_19_113
*777 FILLER_19_116
*778 FILLER_19_119
*779 FILLER_19_122
*780 FILLER_19_128
*781 FILLER_19_142
*782 FILLER_19_145
*783 FILLER_19_158
*784 FILLER_19_167
*785 FILLER_19_3
*786 FILLER_19_33
*787 FILLER_19_36
*788 FILLER_19_52
*789 FILLER_19_55
*790 FILLER_19_57
*791 FILLER_19_6
*792 FILLER_19_60
*793 FILLER_19_63
*794 FILLER_19_81
*795 FILLER_19_84
*796 FILLER_1_108
*797 FILLER_1_11
*798 FILLER_1_111
*799 FILLER_1_120
*800 FILLER_1_137
*801 FILLER_1_149
*802 FILLER_1_165
*803 FILLER_1_174
*804 FILLER_1_177
*805 FILLER_1_180
*806 FILLER_1_183
*807 FILLER_1_186
*808 FILLER_1_189
*809 FILLER_1_192
*810 FILLER_1_195
*811 FILLER_1_198
*812 FILLER_1_55
*813 FILLER_1_57
*814 FILLER_20_102
*815 FILLER_20_105
*816 FILLER_20_108
*817 FILLER_20_111
*818 FILLER_20_114
*819 FILLER_20_117
*820 FILLER_20_120
*821 FILLER_20_123
*822 FILLER_20_126
*823 FILLER_20_132
*824 FILLER_20_135
*825 FILLER_20_138
*826 FILLER_20_141
*827 FILLER_20_144
*828 FILLER_20_147
*829 FILLER_20_15
*830 FILLER_20_150
*831 FILLER_20_153
*832 FILLER_20_156
*833 FILLER_20_159
*834 FILLER_20_162
*835 FILLER_20_165
*836 FILLER_20_168
*837 FILLER_20_18
*838 FILLER_20_197
*839 FILLER_20_200
*840 FILLER_20_21
*841 FILLER_20_27
*842 FILLER_20_29
*843 FILLER_20_3
*844 FILLER_20_43
*845 FILLER_20_46
*846 FILLER_20_55
*847 FILLER_20_58
*848 FILLER_20_6
*849 FILLER_20_61
*850 FILLER_20_64
*851 FILLER_20_71
*852 FILLER_20_74
*853 FILLER_20_77
*854 FILLER_20_80
*855 FILLER_20_83
*856 FILLER_20_85
*857 FILLER_20_9
*858 FILLER_20_99
*859 FILLER_21_10
*860 FILLER_21_102
*861 FILLER_21_105
*862 FILLER_21_108
*863 FILLER_21_111
*864 FILLER_21_113
*865 FILLER_21_116
*866 FILLER_21_119
*867 FILLER_21_122
*868 FILLER_21_131
*869 FILLER_21_139
*870 FILLER_21_147
*871 FILLER_21_150
*872 FILLER_21_153
*873 FILLER_21_156
*874 FILLER_21_159
*875 FILLER_21_16
*876 FILLER_21_162
*877 FILLER_21_169
*878 FILLER_21_172
*879 FILLER_21_19
*880 FILLER_21_195
*881 FILLER_21_198
*882 FILLER_21_22
*883 FILLER_21_25
*884 FILLER_21_28
*885 FILLER_21_35
*886 FILLER_21_38
*887 FILLER_21_41
*888 FILLER_21_44
*889 FILLER_21_47
*890 FILLER_21_50
*891 FILLER_21_53
*892 FILLER_21_57
*893 FILLER_21_60
*894 FILLER_21_63
*895 FILLER_21_7
*896 FILLER_21_93
*897 FILLER_21_96
*898 FILLER_21_99
*899 FILLER_22_108
*900 FILLER_22_111
*901 FILLER_22_139
*902 FILLER_22_154
*903 FILLER_22_160
*904 FILLER_22_194
*905 FILLER_22_197
*906 FILLER_22_200
*907 FILLER_22_22
*908 FILLER_22_25
*909 FILLER_22_29
*910 FILLER_22_3
*911 FILLER_22_32
*912 FILLER_22_35
*913 FILLER_22_56
*914 FILLER_22_6
*915 FILLER_22_67
*916 FILLER_22_70
*917 FILLER_22_73
*918 FILLER_22_76
*919 FILLER_22_79
*920 FILLER_22_82
*921 FILLER_22_85
*922 FILLER_22_92
*923 FILLER_23_113
*924 FILLER_23_116
*925 FILLER_23_133
*926 FILLER_23_136
*927 FILLER_23_139
*928 FILLER_23_142
*929 FILLER_23_145
*930 FILLER_23_148
*931 FILLER_23_151
*932 FILLER_23_167
*933 FILLER_23_169
*934 FILLER_23_172
*935 FILLER_23_194
*936 FILLER_23_197
*937 FILLER_23_200
*938 FILLER_23_25
*939 FILLER_23_28
*940 FILLER_23_43
*941 FILLER_23_46
*942 FILLER_23_49
*943 FILLER_23_90
*944 FILLER_24_107
*945 FILLER_24_110
*946 FILLER_24_113
*947 FILLER_24_116
*948 FILLER_24_119
*949 FILLER_24_125
*950 FILLER_24_128
*951 FILLER_24_131
*952 FILLER_24_134
*953 FILLER_24_137
*954 FILLER_24_141
*955 FILLER_24_144
*956 FILLER_24_147
*957 FILLER_24_150
*958 FILLER_24_153
*959 FILLER_24_166
*960 FILLER_24_169
*961 FILLER_24_172
*962 FILLER_24_197
*963 FILLER_24_20
*964 FILLER_24_200
*965 FILLER_24_29
*966 FILLER_24_50
*967 FILLER_24_53
*968 FILLER_24_62
*969 FILLER_24_70
*970 FILLER_24_73
*971 FILLER_24_76
*972 FILLER_24_85
*973 FILLER_24_88
*974 FILLER_25_100
*975 FILLER_25_103
*976 FILLER_25_106
*977 FILLER_25_109
*978 FILLER_25_113
*979 FILLER_25_116
*980 FILLER_25_119
*981 FILLER_25_122
*982 FILLER_25_141
*983 FILLER_25_153
*984 FILLER_25_156
*985 FILLER_25_159
*986 FILLER_25_162
*987 FILLER_25_165
*988 FILLER_25_169
*989 FILLER_25_172
*990 FILLER_25_175
*991 FILLER_25_196
*992 FILLER_25_199
*993 FILLER_25_34
*994 FILLER_25_37
*995 FILLER_25_40
*996 FILLER_25_43
*997 FILLER_25_46
*998 FILLER_25_49
*999 FILLER_25_52
*1000 FILLER_25_55
*1001 FILLER_25_57
*1002 FILLER_25_60
*1003 FILLER_25_63
*1004 FILLER_25_66
*1005 FILLER_25_69
*1006 FILLER_25_72
*1007 FILLER_25_75
*1008 FILLER_25_78
*1009 FILLER_25_84
*1010 FILLER_25_91
*1011 FILLER_25_94
*1012 FILLER_25_97
*1013 FILLER_26_100
*1014 FILLER_26_103
*1015 FILLER_26_106
*1016 FILLER_26_109
*1017 FILLER_26_112
*1018 FILLER_26_115
*1019 FILLER_26_135
*1020 FILLER_26_138
*1021 FILLER_26_141
*1022 FILLER_26_176
*1023 FILLER_26_191
*1024 FILLER_26_194
*1025 FILLER_26_197
*1026 FILLER_26_200
*1027 FILLER_26_22
*1028 FILLER_26_25
*1029 FILLER_26_29
*1030 FILLER_26_3
*1031 FILLER_26_32
*1032 FILLER_26_40
*1033 FILLER_26_43
*1034 FILLER_26_46
*1035 FILLER_26_49
*1036 FILLER_26_6
*1037 FILLER_26_70
*1038 FILLER_26_73
*1039 FILLER_26_76
*1040 FILLER_26_85
*1041 FILLER_26_88
*1042 FILLER_26_91
*1043 FILLER_26_94
*1044 FILLER_26_97
*1045 FILLER_27_113
*1046 FILLER_27_116
*1047 FILLER_27_119
*1048 FILLER_27_129
*1049 FILLER_27_143
*1050 FILLER_27_157
*1051 FILLER_27_160
*1052 FILLER_27_163
*1053 FILLER_27_166
*1054 FILLER_27_182
*1055 FILLER_27_190
*1056 FILLER_27_23
*1057 FILLER_27_39
*1058 FILLER_27_42
*1059 FILLER_27_45
*1060 FILLER_27_55
*1061 FILLER_27_62
*1062 FILLER_27_65
*1063 FILLER_27_98
*1064 FILLER_28_107
*1065 FILLER_28_110
*1066 FILLER_28_113
*1067 FILLER_28_116
*1068 FILLER_28_119
*1069 FILLER_28_122
*1070 FILLER_28_128
*1071 FILLER_28_13
*1072 FILLER_28_131
*1073 FILLER_28_134
*1074 FILLER_28_137
*1075 FILLER_28_141
*1076 FILLER_28_144
*1077 FILLER_28_147
*1078 FILLER_28_150
*1079 FILLER_28_153
*1080 FILLER_28_156
*1081 FILLER_28_159
*1082 FILLER_28_162
*1083 FILLER_28_165
*1084 FILLER_28_168
*1085 FILLER_28_185
*1086 FILLER_28_197
*1087 FILLER_28_200
*1088 FILLER_28_29
*1089 FILLER_28_32
*1090 FILLER_28_47
*1091 FILLER_28_50
*1092 FILLER_28_62
*1093 FILLER_28_65
*1094 FILLER_28_68
*1095 FILLER_28_81
*1096 FILLER_28_89
*1097 FILLER_28_92
*1098 FILLER_29_10
*1099 FILLER_29_107
*1100 FILLER_29_110
*1101 FILLER_29_113
*1102 FILLER_29_116
*1103 FILLER_29_119
*1104 FILLER_29_122
*1105 FILLER_29_136
*1106 FILLER_29_139
*1107 FILLER_29_142
*1108 FILLER_29_145
*1109 FILLER_29_167
*1110 FILLER_29_169
*1111 FILLER_29_172
*1112 FILLER_29_200
*1113 FILLER_29_24
*1114 FILLER_29_27
*1115 FILLER_29_42
*1116 FILLER_29_45
*1117 FILLER_29_48
*1118 FILLER_29_57
*1119 FILLER_29_60
*1120 FILLER_29_63
*1121 FILLER_29_66
*1122 FILLER_29_69
*1123 FILLER_29_7
*1124 FILLER_29_72
*1125 FILLER_29_87
*1126 FILLER_29_90
*1127 FILLER_29_93
*1128 FILLER_2_102
*1129 FILLER_2_105
*1130 FILLER_2_119
*1131 FILLER_2_126
*1132 FILLER_2_129
*1133 FILLER_2_147
*1134 FILLER_2_156
*1135 FILLER_2_164
*1136 FILLER_2_167
*1137 FILLER_2_170
*1138 FILLER_2_179
*1139 FILLER_2_187
*1140 FILLER_2_190
*1141 FILLER_2_193
*1142 FILLER_2_197
*1143 FILLER_2_200
*1144 FILLER_2_32
*1145 FILLER_2_66
*1146 FILLER_30_115
*1147 FILLER_30_137
*1148 FILLER_30_141
*1149 FILLER_30_144
*1150 FILLER_30_16
*1151 FILLER_30_168
*1152 FILLER_30_171
*1153 FILLER_30_174
*1154 FILLER_30_188
*1155 FILLER_30_191
*1156 FILLER_30_194
*1157 FILLER_30_197
*1158 FILLER_30_200
*1159 FILLER_30_24
*1160 FILLER_30_27
*1161 FILLER_30_3
*1162 FILLER_30_35
*1163 FILLER_30_38
*1164 FILLER_30_41
*1165 FILLER_30_6
*1166 FILLER_30_69
*1167 FILLER_30_72
*1168 FILLER_30_75
*1169 FILLER_30_78
*1170 FILLER_30_81
*1171 FILLER_30_85
*1172 FILLER_30_88
*1173 FILLER_30_9
*1174 FILLER_31_113
*1175 FILLER_31_12
*1176 FILLER_31_128
*1177 FILLER_31_142
*1178 FILLER_31_145
*1179 FILLER_31_148
*1180 FILLER_31_165
*1181 FILLER_31_169
*1182 FILLER_31_172
*1183 FILLER_31_175
*1184 FILLER_31_178
*1185 FILLER_31_181
*1186 FILLER_31_184
*1187 FILLER_31_187
*1188 FILLER_31_197
*1189 FILLER_31_200
*1190 FILLER_31_3
*1191 FILLER_31_37
*1192 FILLER_31_40
*1193 FILLER_31_43
*1194 FILLER_31_53
*1195 FILLER_31_6
*1196 FILLER_31_68
*1197 FILLER_31_71
*1198 FILLER_31_9
*1199 FILLER_32_101
*1200 FILLER_32_104
*1201 FILLER_32_112
*1202 FILLER_32_115
*1203 FILLER_32_118
*1204 FILLER_32_12
*1205 FILLER_32_121
*1206 FILLER_32_15
*1207 FILLER_32_18
*1208 FILLER_32_180
*1209 FILLER_32_183
*1210 FILLER_32_186
*1211 FILLER_32_189
*1212 FILLER_32_192
*1213 FILLER_32_197
*1214 FILLER_32_42
*1215 FILLER_32_45
*1216 FILLER_32_71
*1217 FILLER_32_74
*1218 FILLER_32_80
*1219 FILLER_32_83
*1220 FILLER_32_9
*1221 FILLER_33_102
*1222 FILLER_33_105
*1223 FILLER_33_108
*1224 FILLER_33_111
*1225 FILLER_33_113
*1226 FILLER_33_116
*1227 FILLER_33_119
*1228 FILLER_33_12
*1229 FILLER_33_138
*1230 FILLER_33_141
*1231 FILLER_33_15
*1232 FILLER_33_153
*1233 FILLER_33_167
*1234 FILLER_33_169
*1235 FILLER_33_179
*1236 FILLER_33_18
*1237 FILLER_33_182
*1238 FILLER_33_185
*1239 FILLER_33_188
*1240 FILLER_33_191
*1241 FILLER_33_197
*1242 FILLER_33_21
*1243 FILLER_33_24
*1244 FILLER_33_27
*1245 FILLER_33_29
*1246 FILLER_33_32
*1247 FILLER_33_35
*1248 FILLER_33_38
*1249 FILLER_33_41
*1250 FILLER_33_44
*1251 FILLER_33_47
*1252 FILLER_33_50
*1253 FILLER_33_53
*1254 FILLER_33_57
*1255 FILLER_33_60
*1256 FILLER_33_63
*1257 FILLER_33_66
*1258 FILLER_33_82
*1259 FILLER_33_85
*1260 FILLER_33_88
*1261 FILLER_33_96
*1262 FILLER_33_99
*1263 FILLER_3_102
*1264 FILLER_3_105
*1265 FILLER_3_123
*1266 FILLER_3_138
*1267 FILLER_3_141
*1268 FILLER_3_144
*1269 FILLER_3_154
*1270 FILLER_3_182
*1271 FILLER_3_185
*1272 FILLER_3_195
*1273 FILLER_3_198
*1274 FILLER_3_46
*1275 FILLER_3_57
*1276 FILLER_3_67
*1277 FILLER_3_96
*1278 FILLER_3_99
*1279 FILLER_4_105
*1280 FILLER_4_125
*1281 FILLER_4_128
*1282 FILLER_4_131
*1283 FILLER_4_141
*1284 FILLER_4_156
*1285 FILLER_4_159
*1286 FILLER_4_162
*1287 FILLER_4_165
*1288 FILLER_4_168
*1289 FILLER_4_171
*1290 FILLER_4_179
*1291 FILLER_4_189
*1292 FILLER_4_192
*1293 FILLER_4_195
*1294 FILLER_4_197
*1295 FILLER_4_200
*1296 FILLER_4_26
*1297 FILLER_4_37
*1298 FILLER_4_47
*1299 FILLER_4_56
*1300 FILLER_4_59
*1301 FILLER_4_70
*1302 FILLER_4_81
*1303 FILLER_5_109
*1304 FILLER_5_126
*1305 FILLER_5_129
*1306 FILLER_5_132
*1307 FILLER_5_135
*1308 FILLER_5_138
*1309 FILLER_5_141
*1310 FILLER_5_144
*1311 FILLER_5_147
*1312 FILLER_5_150
*1313 FILLER_5_162
*1314 FILLER_5_165
*1315 FILLER_5_169
*1316 FILLER_5_3
*1317 FILLER_5_53
*1318 FILLER_5_57
*1319 FILLER_5_98
*1320 FILLER_6_102
*1321 FILLER_6_117
*1322 FILLER_6_131
*1323 FILLER_6_134
*1324 FILLER_6_137
*1325 FILLER_6_141
*1326 FILLER_6_144
*1327 FILLER_6_147
*1328 FILLER_6_150
*1329 FILLER_6_153
*1330 FILLER_6_173
*1331 FILLER_6_176
*1332 FILLER_6_195
*1333 FILLER_6_197
*1334 FILLER_6_200
*1335 FILLER_6_29
*1336 FILLER_6_62
*1337 FILLER_6_65
*1338 FILLER_6_93
*1339 FILLER_6_96
*1340 FILLER_6_99
*1341 FILLER_7_107
*1342 FILLER_7_110
*1343 FILLER_7_113
*1344 FILLER_7_116
*1345 FILLER_7_119
*1346 FILLER_7_159
*1347 FILLER_7_195
*1348 FILLER_7_198
*1349 FILLER_7_26
*1350 FILLER_7_45
*1351 FILLER_7_52
*1352 FILLER_7_55
*1353 FILLER_7_74
*1354 FILLER_8_100
*1355 FILLER_8_118
*1356 FILLER_8_121
*1357 FILLER_8_124
*1358 FILLER_8_127
*1359 FILLER_8_130
*1360 FILLER_8_149
*1361 FILLER_8_152
*1362 FILLER_8_155
*1363 FILLER_8_161
*1364 FILLER_8_164
*1365 FILLER_8_167
*1366 FILLER_8_170
*1367 FILLER_8_173
*1368 FILLER_8_189
*1369 FILLER_8_192
*1370 FILLER_8_195
*1371 FILLER_8_197
*1372 FILLER_8_200
*1373 FILLER_8_25
*1374 FILLER_8_29
*1375 FILLER_8_47
*1376 FILLER_8_74
*1377 FILLER_8_83
*1378 FILLER_8_91
*1379 FILLER_8_94
*1380 FILLER_8_97
*1381 FILLER_9_107
*1382 FILLER_9_110
*1383 FILLER_9_113
*1384 FILLER_9_116
*1385 FILLER_9_119
*1386 FILLER_9_122
*1387 FILLER_9_135
*1388 FILLER_9_148
*1389 FILLER_9_151
*1390 FILLER_9_154
*1391 FILLER_9_157
*1392 FILLER_9_160
*1393 FILLER_9_167
*1394 FILLER_9_169
*1395 FILLER_9_172
*1396 FILLER_9_175
*1397 FILLER_9_178
*1398 FILLER_9_192
*1399 FILLER_9_29
*1400 FILLER_9_3
*1401 FILLER_9_32
*1402 FILLER_9_57
*1403 FILLER_9_60
*1404 FILLER_9_69
*1405 FILLER_9_80
*1406 FILLER_9_83
*1407 PHY_EDGE_ROW_0_Left_34
*1408 PHY_EDGE_ROW_0_Right_0
*1409 PHY_EDGE_ROW_10_Left_44
*1410 PHY_EDGE_ROW_10_Right_10
*1411 PHY_EDGE_ROW_11_Left_45
*1412 PHY_EDGE_ROW_11_Right_11
*1413 PHY_EDGE_ROW_12_Left_46
*1414 PHY_EDGE_ROW_12_Right_12
*1415 PHY_EDGE_ROW_13_Left_47
*1416 PHY_EDGE_ROW_13_Right_13
*1417 PHY_EDGE_ROW_14_Left_48
*1418 PHY_EDGE_ROW_14_Right_14
*1419 PHY_EDGE_ROW_15_Left_49
*1420 PHY_EDGE_ROW_15_Right_15
*1421 PHY_EDGE_ROW_16_Left_50
*1422 PHY_EDGE_ROW_16_Right_16
*1423 PHY_EDGE_ROW_17_Left_51
*1424 PHY_EDGE_ROW_17_Right_17
*1425 PHY_EDGE_ROW_18_Left_52
*1426 PHY_EDGE_ROW_18_Right_18
*1427 PHY_EDGE_ROW_19_Left_53
*1428 PHY_EDGE_ROW_19_Right_19
*1429 PHY_EDGE_ROW_1_Left_35
*1430 PHY_EDGE_ROW_1_Right_1
*1431 PHY_EDGE_ROW_20_Left_54
*1432 PHY_EDGE_ROW_20_Right_20
*1433 PHY_EDGE_ROW_21_Left_55
*1434 PHY_EDGE_ROW_21_Right_21
*1435 PHY_EDGE_ROW_22_Left_56
*1436 PHY_EDGE_ROW_22_Right_22
*1437 PHY_EDGE_ROW_23_Left_57
*1438 PHY_EDGE_ROW_23_Right_23
*1439 PHY_EDGE_ROW_24_Left_58
*1440 PHY_EDGE_ROW_24_Right_24
*1441 PHY_EDGE_ROW_25_Left_59
*1442 PHY_EDGE_ROW_25_Right_25
*1443 PHY_EDGE_ROW_26_Left_60
*1444 PHY_EDGE_ROW_26_Right_26
*1445 PHY_EDGE_ROW_27_Left_61
*1446 PHY_EDGE_ROW_27_Right_27
*1447 PHY_EDGE_ROW_28_Left_62
*1448 PHY_EDGE_ROW_28_Right_28
*1449 PHY_EDGE_ROW_29_Left_63
*1450 PHY_EDGE_ROW_29_Right_29
*1451 PHY_EDGE_ROW_2_Left_36
*1452 PHY_EDGE_ROW_2_Right_2
*1453 PHY_EDGE_ROW_30_Left_64
*1454 PHY_EDGE_ROW_30_Right_30
*1455 PHY_EDGE_ROW_31_Left_65
*1456 PHY_EDGE_ROW_31_Right_31
*1457 PHY_EDGE_ROW_32_Left_66
*1458 PHY_EDGE_ROW_32_Right_32
*1459 PHY_EDGE_ROW_33_Left_67
*1460 PHY_EDGE_ROW_33_Right_33
*1461 PHY_EDGE_ROW_3_Left_37
*1462 PHY_EDGE_ROW_3_Right_3
*1463 PHY_EDGE_ROW_4_Left_38
*1464 PHY_EDGE_ROW_4_Right_4
*1465 PHY_EDGE_ROW_5_Left_39
*1466 PHY_EDGE_ROW_5_Right_5
*1467 PHY_EDGE_ROW_6_Left_40
*1468 PHY_EDGE_ROW_6_Right_6
*1469 PHY_EDGE_ROW_7_Left_41
*1470 PHY_EDGE_ROW_7_Right_7
*1471 PHY_EDGE_ROW_8_Left_42
*1472 PHY_EDGE_ROW_8_Right_8
*1473 PHY_EDGE_ROW_9_Left_43
*1474 PHY_EDGE_ROW_9_Right_9
*1475 TAP_TAPCELL_ROW_0_68
*1476 TAP_TAPCELL_ROW_0_69
*1477 TAP_TAPCELL_ROW_0_70
*1478 TAP_TAPCELL_ROW_0_71
*1479 TAP_TAPCELL_ROW_0_72
*1480 TAP_TAPCELL_ROW_0_73
*1481 TAP_TAPCELL_ROW_0_74
*1482 TAP_TAPCELL_ROW_10_106
*1483 TAP_TAPCELL_ROW_10_107
*1484 TAP_TAPCELL_ROW_10_108
*1485 TAP_TAPCELL_ROW_10_109
*1486 TAP_TAPCELL_ROW_11_110
*1487 TAP_TAPCELL_ROW_11_111
*1488 TAP_TAPCELL_ROW_11_112
*1489 TAP_TAPCELL_ROW_12_113
*1490 TAP_TAPCELL_ROW_12_114
*1491 TAP_TAPCELL_ROW_12_115
*1492 TAP_TAPCELL_ROW_12_116
*1493 TAP_TAPCELL_ROW_13_117
*1494 TAP_TAPCELL_ROW_13_118
*1495 TAP_TAPCELL_ROW_13_119
*1496 TAP_TAPCELL_ROW_14_120
*1497 TAP_TAPCELL_ROW_14_121
*1498 TAP_TAPCELL_ROW_14_122
*1499 TAP_TAPCELL_ROW_14_123
*1500 TAP_TAPCELL_ROW_15_124
*1501 TAP_TAPCELL_ROW_15_125
*1502 TAP_TAPCELL_ROW_15_126
*1503 TAP_TAPCELL_ROW_16_127
*1504 TAP_TAPCELL_ROW_16_128
*1505 TAP_TAPCELL_ROW_16_129
*1506 TAP_TAPCELL_ROW_16_130
*1507 TAP_TAPCELL_ROW_17_131
*1508 TAP_TAPCELL_ROW_17_132
*1509 TAP_TAPCELL_ROW_17_133
*1510 TAP_TAPCELL_ROW_18_134
*1511 TAP_TAPCELL_ROW_18_135
*1512 TAP_TAPCELL_ROW_18_136
*1513 TAP_TAPCELL_ROW_18_137
*1514 TAP_TAPCELL_ROW_19_138
*1515 TAP_TAPCELL_ROW_19_139
*1516 TAP_TAPCELL_ROW_19_140
*1517 TAP_TAPCELL_ROW_1_75
*1518 TAP_TAPCELL_ROW_1_76
*1519 TAP_TAPCELL_ROW_1_77
*1520 TAP_TAPCELL_ROW_20_141
*1521 TAP_TAPCELL_ROW_20_142
*1522 TAP_TAPCELL_ROW_20_143
*1523 TAP_TAPCELL_ROW_20_144
*1524 TAP_TAPCELL_ROW_21_145
*1525 TAP_TAPCELL_ROW_21_146
*1526 TAP_TAPCELL_ROW_21_147
*1527 TAP_TAPCELL_ROW_22_148
*1528 TAP_TAPCELL_ROW_22_149
*1529 TAP_TAPCELL_ROW_22_150
*1530 TAP_TAPCELL_ROW_22_151
*1531 TAP_TAPCELL_ROW_23_152
*1532 TAP_TAPCELL_ROW_23_153
*1533 TAP_TAPCELL_ROW_23_154
*1534 TAP_TAPCELL_ROW_24_155
*1535 TAP_TAPCELL_ROW_24_156
*1536 TAP_TAPCELL_ROW_24_157
*1537 TAP_TAPCELL_ROW_24_158
*1538 TAP_TAPCELL_ROW_25_159
*1539 TAP_TAPCELL_ROW_25_160
*1540 TAP_TAPCELL_ROW_25_161
*1541 TAP_TAPCELL_ROW_26_162
*1542 TAP_TAPCELL_ROW_26_163
*1543 TAP_TAPCELL_ROW_26_164
*1544 TAP_TAPCELL_ROW_26_165
*1545 TAP_TAPCELL_ROW_27_166
*1546 TAP_TAPCELL_ROW_27_167
*1547 TAP_TAPCELL_ROW_27_168
*1548 TAP_TAPCELL_ROW_28_169
*1549 TAP_TAPCELL_ROW_28_170
*1550 TAP_TAPCELL_ROW_28_171
*1551 TAP_TAPCELL_ROW_28_172
*1552 TAP_TAPCELL_ROW_29_173
*1553 TAP_TAPCELL_ROW_29_174
*1554 TAP_TAPCELL_ROW_29_175
*1555 TAP_TAPCELL_ROW_2_78
*1556 TAP_TAPCELL_ROW_2_79
*1557 TAP_TAPCELL_ROW_2_80
*1558 TAP_TAPCELL_ROW_2_81
*1559 TAP_TAPCELL_ROW_30_176
*1560 TAP_TAPCELL_ROW_30_177
*1561 TAP_TAPCELL_ROW_30_178
*1562 TAP_TAPCELL_ROW_30_179
*1563 TAP_TAPCELL_ROW_31_180
*1564 TAP_TAPCELL_ROW_31_181
*1565 TAP_TAPCELL_ROW_31_182
*1566 TAP_TAPCELL_ROW_32_183
*1567 TAP_TAPCELL_ROW_32_184
*1568 TAP_TAPCELL_ROW_32_185
*1569 TAP_TAPCELL_ROW_32_186
*1570 TAP_TAPCELL_ROW_33_187
*1571 TAP_TAPCELL_ROW_33_188
*1572 TAP_TAPCELL_ROW_33_189
*1573 TAP_TAPCELL_ROW_33_190
*1574 TAP_TAPCELL_ROW_33_191
*1575 TAP_TAPCELL_ROW_33_192
*1576 TAP_TAPCELL_ROW_33_193
*1577 TAP_TAPCELL_ROW_3_82
*1578 TAP_TAPCELL_ROW_3_83
*1579 TAP_TAPCELL_ROW_3_84
*1580 TAP_TAPCELL_ROW_4_85
*1581 TAP_TAPCELL_ROW_4_86
*1582 TAP_TAPCELL_ROW_4_87
*1583 TAP_TAPCELL_ROW_4_88
*1584 TAP_TAPCELL_ROW_5_89
*1585 TAP_TAPCELL_ROW_5_90
*1586 TAP_TAPCELL_ROW_5_91
*1587 TAP_TAPCELL_ROW_6_92
*1588 TAP_TAPCELL_ROW_6_93
*1589 TAP_TAPCELL_ROW_6_94
*1590 TAP_TAPCELL_ROW_6_95
*1591 TAP_TAPCELL_ROW_7_96
*1592 TAP_TAPCELL_ROW_7_97
*1593 TAP_TAPCELL_ROW_7_98
*1594 TAP_TAPCELL_ROW_8_100
*1595 TAP_TAPCELL_ROW_8_101
*1596 TAP_TAPCELL_ROW_8_102
*1597 TAP_TAPCELL_ROW_8_99
*1598 TAP_TAPCELL_ROW_9_103
*1599 TAP_TAPCELL_ROW_9_104
*1600 TAP_TAPCELL_ROW_9_105
*1601 _369_
*1602 _370_
*1603 _371_
*1604 _372_
*1605 _373_
*1606 _374_
*1607 _375_
*1608 _376_
*1609 _377_
*1610 _378_
*1611 _379_
*1612 _380_
*1613 _381_
*1614 _382_
*1615 _383_
*1616 _384_
*1617 _385_
*1618 _386_
*1619 _387_
*1620 _388_
*1621 _389_
*1622 _390_
*1623 _391_
*1624 _392_
*1625 _393_
*1626 _394_
*1627 _395_
*1628 _396_
*1629 _397_
*1630 _398_
*1631 _399_
*1632 _400_
*1633 _401_
*1634 _402_
*1635 _403_
*1636 _404_
*1637 _405_
*1638 _406_
*1639 _407_
*1640 _408_
*1641 _409_
*1642 _410_
*1643 _411_
*1644 _412_
*1645 _413_
*1646 _414_
*1647 _415_
*1648 _416_
*1649 _417_
*1650 _418_
*1651 _419_
*1652 _420_
*1653 _421_
*1654 _422_
*1655 _423_
*1656 _424_
*1657 _425_
*1658 _426_
*1659 _427_
*1660 _428_
*1661 _429_
*1662 _430_
*1663 _431_
*1664 _432_
*1665 _433_
*1666 _434_
*1667 _435_
*1668 _436_
*1669 _437_
*1670 _438_
*1671 _439_
*1672 _440_
*1673 _441_
*1674 _442_
*1675 _443_
*1676 _444_
*1677 _445_
*1678 _446_
*1679 _447_
*1680 _448_
*1681 _449_
*1682 _450_
*1683 _451_
*1684 _452_
*1685 _453_
*1686 _454_
*1687 _455_
*1688 _456_
*1689 _457_
*1690 _458_
*1691 _459_
*1692 _460_
*1693 _461_
*1694 _462_
*1695 _463_
*1696 _464_
*1697 _465_
*1698 _466_
*1699 _467_
*1700 _468_
*1701 _469_
*1702 _470_
*1703 _471_
*1704 _472_
*1705 _473_
*1706 _474_
*1707 _475_
*1708 _476_
*1709 _477_
*1710 _478_
*1711 _479_
*1712 _480_
*1713 _481_
*1714 _482_
*1715 _483_
*1716 _484_
*1717 _485_
*1718 _486_
*1719 _487_
*1720 _488_
*1721 _489_
*1722 _490_
*1723 _491_
*1724 _492_
*1725 _493_
*1726 _494_
*1727 _495_
*1728 _496_
*1729 _497_
*1730 _498_
*1731 _499_
*1732 _500_
*1733 _501_
*1734 _502_
*1735 _503_
*1736 _504_
*1737 _505_
*1738 _506_
*1739 _507_
*1740 _508_
*1741 _509_
*1742 _510_
*1743 _511_
*1744 _512_
*1745 _513_
*1746 _514_
*1747 _515_
*1748 _516_
*1749 _517_
*1750 _518_
*1751 _519_
*1752 _520_
*1753 _521_
*1754 _522_
*1755 _523_
*1756 _524_
*1757 _525_
*1758 _526_
*1759 _527_
*1760 _528_
*1761 _529_
*1762 _530_
*1763 _531_
*1764 _532_
*1765 _533_
*1766 _534_
*1767 _535_
*1768 _536_
*1769 _537_
*1770 _538_
*1771 _539_
*1772 _540_
*1773 _541_
*1774 _542_
*1775 _543_
*1776 _544_
*1777 _545_
*1778 _546_
*1779 _547_
*1780 _548_
*1781 _549_
*1782 _550_
*1783 _551_
*1784 _552_
*1785 _553_
*1786 _554_
*1787 _555_
*1788 _556_
*1789 _557_
*1790 _558_
*1791 _559_
*1792 _560_
*1793 _561_
*1794 _562_
*1795 _563_
*1796 _564_
*1797 _565_
*1798 _566_
*1799 _567_
*1800 _568_
*1801 _569_
*1802 _570_
*1803 _571_
*1804 _572_
*1805 _573_
*1806 _574_
*1807 _575_
*1808 _576_
*1809 _577_
*1810 _578_
*1811 _579_
*1812 _580_
*1813 _581_
*1814 _582_
*1815 _583_
*1816 _584_
*1817 _585_
*1818 _586_
*1819 _587_
*1820 _588_
*1821 _589_
*1822 _590_
*1823 _591_
*1824 _592_
*1825 _593_
*1826 _594_
*1827 _595_
*1828 _596_
*1829 _597_
*1830 _598_
*1831 _599_
*1832 _600_
*1833 _601_
*1834 _602_
*1835 _603_
*1836 _604_
*1837 _605_
*1838 _606_
*1839 _607_
*1840 _608_
*1841 _609_
*1842 _610_
*1843 _611_
*1844 _612_
*1845 _613_
*1846 _614_
*1847 _615_
*1848 _616_
*1849 _617_
*1850 _618_
*1851 _619_
*1852 _620_
*1853 _621_
*1854 _622_
*1855 _623_
*1856 _624_
*1857 _625_
*1858 _626_
*1859 _627_
*1860 _628_
*1861 _629_
*1862 _630_
*1863 _631_
*1864 _632_
*1865 _633_
*1866 _634_
*1867 _635_
*1868 _636_
*1869 _637_
*1870 _638_
*1871 _639_
*1872 _640_
*1873 _641_
*1874 _642_
*1875 _643_
*1876 _644_
*1877 _645_
*1878 _646_
*1879 _647_
*1880 _648_
*1881 _649_
*1882 _650_
*1883 _651_
*1884 _652_
*1885 _653_
*1886 _654_
*1887 _655_
*1888 _656_
*1889 _657_
*1890 _658_
*1891 _659_
*1892 _660_
*1893 _661_
*1894 _662_
*1895 _663_
*1896 _664_
*1897 _665_
*1898 _666_
*1899 _667_
*1900 _668_
*1901 _669_
*1902 _670_
*1903 _671_
*1904 _672_
*1905 _673_
*1906 _674_
*1907 _675_
*1908 _676_
*1909 _677_
*1910 _678_
*1911 _679_
*1912 _680_
*1913 _681_
*1914 _682_
*1915 _683_
*1916 _684_
*1917 _685_
*1918 _686_
*1919 _687_
*1920 _688_
*1921 _689_
*1922 _690_
*1923 _691_
*1924 _692_
*1925 _693_
*1926 _694_
*1927 _695_
*1928 _696_
*1929 _697_
*1930 _698_
*1931 _699_
*1932 _700_
*1933 _701_
*1934 _702_
*1935 _703_
*1936 _704_
*1937 _705_
*1938 _706_
*1939 _707_
*1940 _708_
*1941 _709_
*1942 _710_
*1943 _711_
*1944 _712_
*1945 _713_
*1946 _714_
*1947 _715_
*1948 _716_
*1949 _717_
*1950 _718_
*1951 _719_
*1952 _720_
*1953 _721_
*1954 _722_
*1955 _723_
*1956 _724_
*1957 _725_
*1958 _726_
*1959 _727_
*1960 _728_
*1961 _729_
*1962 _730_
*1963 _731_
*1964 _732_
*1965 _733_
*1966 _734_
*1967 _735_
*1968 _736_
*1969 _737_
*1970 _738_
*1971 _739_
*1972 _740_
*1973 _741_
*1974 _742_
*1975 _743_
*1976 _744_
*1977 _745_
*1978 _746_
*1979 _747_
*1980 _748_
*1981 _749_
*1982 _750_
*1983 _751_
*1984 _752_
*1985 _753_
*1986 _754_
*1987 _755_
*1988 _756_
*1989 _757_
*1990 _758_
*1991 _759_
*1992 _760_
*1993 _761_
*1994 _762_
*1995 _763_
*1996 _764_
*1997 _765_
*1998 _766_
*1999 _767_
*2000 _768_
*2001 _769_
*2002 _770_
*2003 _771_
*2004 _772_
*2005 _773_
*2006 _774_
*2007 _775_
*2008 _776_
*2009 _777_
*2010 _778_
*2011 _779_
*2012 _780_
*2013 clkbuf_0_clk
*2014 clkbuf_2_0__f_clk
*2015 clkbuf_2_1__f_clk
*2016 clkbuf_2_2__f_clk
*2017 clkbuf_2_3__f_clk
*2018 clkload0
*2019 clkload1
*2020 clkload2
*2021 fanout35
*2022 fanout36
*2023 fanout37
*2024 fanout38
*2025 hold100
*2026 hold101
*2027 hold102
*2028 hold103
*2029 hold104
*2030 hold105
*2031 hold106
*2032 hold107
*2033 hold108
*2034 hold86
*2035 hold87
*2036 hold88
*2037 hold89
*2038 hold90
*2039 hold91
*2040 hold92
*2041 hold93
*2042 hold94
*2043 hold95
*2044 hold96
*2045 hold97
*2046 hold98
*2047 hold99
*2048 input1
*2049 input10
*2050 input11
*2051 input12
*2052 input13
*2053 input14
*2054 input15
*2055 input16
*2056 input17
*2057 input18
*2058 input19
*2059 input2
*2060 input20
*2061 input21
*2062 input22
*2063 input3
*2064 input4
*2065 input5
*2066 input6
*2067 input7
*2068 input8
*2069 input9
*2070 output23
*2071 output24
*2072 output25
*2073 output26
*2074 output27
*2075 output28
*2076 output29
*2077 output30
*2078 output31
*2079 output32
*2080 output33
*2081 output34
*2082 rebuffer49
*2083 rebuffer50
*2084 rebuffer51
*2085 rebuffer52
*2086 rebuffer53
*2087 rebuffer54
*2088 rebuffer55
*2089 rebuffer56
*2090 rebuffer57
*2091 rebuffer62
*2092 rebuffer63
*2093 rebuffer64
*2094 rebuffer65
*2095 rebuffer69
*2096 rebuffer70
*2097 self_diagnosing_fir
*2098 self_diagnosing_fir_39
*2099 self_diagnosing_fir_40
*2100 self_diagnosing_fir_41
*2101 self_diagnosing_fir_42
*2102 self_diagnosing_fir_43
*2103 self_diagnosing_fir_44
*2104 self_diagnosing_fir_45
*2105 self_diagnosing_fir_46
*2106 self_diagnosing_fir_47
*2107 self_diagnosing_fir_48

*PORTS
clk I
diag_busy O
diag_done O
fault_bit[0] O
fault_bit[1] O
fault_bit[2] O
fault_detected O
fault_location[0] O
fault_location[1] O
fault_type O
fault_vector[0] O
fault_vector[1] O
fault_vector[2] O
fault_vector[3] O
h0[0] I
h0[1] I
h0[2] I
h0[3] I
h1[0] I
h1[1] I
h1[2] I
h1[3] I
h2[0] I
h2[1] I
h2[2] I
h2[3] I
h3[0] I
h3[1] I
h3[2] I
h3[3] I
rst I
start_diag I
x[0] I
x[1] I
x[2] I
x[3] I
y[0] O
y[1] O
y[2] O
y[3] O
y[4] O
y[5] O
y[6] O
y[7] O
y[8] O
y[9] O

*D_NET *3 0.00696338
*CONN
*P clk I
*I *2013:A I *D sky130_fd_sc_hd__clkbuf_16
*CAP
1 clk 0.00146161
2 *2013:A 9.70684e-05
3 *3:46 0.00120691
4 *3:24 0.00257145
5 *2013:A *1942:A 8.00224e-05
6 *2013:A *1942:B 1.06409e-05
7 *2013:A *443:12 4.93118e-06
8 *3:24 *1950:A1 0
9 *3:24 *1950:B1 0
10 *3:24 *1954:A 0.000187716
11 *3:24 *1959:A1 1.0078e-05
12 *3:24 *1961:A1 3.17866e-05
13 *3:24 *1981:D 0.000125668
14 *3:24 *1987:D 0.000180374
15 *3:24 *2007:D 0
16 *3:24 *2025:A 6.66813e-05
17 *3:24 *2035:A 0
18 *3:24 *2057:A 0
19 *3:24 *2058:A 7.05532e-05
20 *3:24 *423:12 0.000216108
21 *3:24 *471:32 2.79092e-05
22 *3:24 *491:91 5.5782e-05
23 *3:24 *491:100 7.49332e-05
24 *3:24 *491:106 7.65942e-05
25 *3:46 *1942:B 1.01342e-06
26 *3:46 *1957:A0 7.62323e-05
27 *3:46 *1957:A1 2.89839e-05
28 *3:46 *1957:S 9.8961e-06
29 *3:46 *1959:S 6.30226e-05
30 *3:46 *1961:A1 6.72825e-05
31 *3:46 *2027:A 2.07878e-05
32 *3:46 *2029:A 6.70939e-05
33 *3:46 *438:10 7.22481e-05
*RES
1 clk *3:24 47.0893 
2 *3:24 *3:46 36 
3 *3:46 *2013:A 11.6036 
*END

*D_NET *4 0.00195251
*CONN
*P diag_busy O
*I *2070:X O *D sky130_fd_sc_hd__clkdlybuf4s25_1
*CAP
1 diag_busy 0.000577069
2 *2070:X 0.000577069
3 diag_busy *1962:A 0.000162735
4 diag_busy *1984:CLK 0
5 diag_busy *1985:CLK 0
6 diag_busy *2061:A 0.000206483
7 diag_busy *2062:A 0.000429154
*RES
1 *2070:X diag_busy 27.0803 
*END

*D_NET *5 0.00156266
*CONN
*P diag_done O
*I *2071:X O *D sky130_fd_sc_hd__clkdlybuf4s25_1
*CAP
1 diag_done 0.000300879
2 *2071:X 0.000300879
3 diag_done *2050:A 0.000489614
4 diag_done *2051:A 0.000463018
5 diag_done *466:6 9.33978e-07
6 diag_done *466:23 7.33786e-06
*RES
1 *2071:X diag_done 25.2643 
*END

*D_NET *6 0.00119499
*CONN
*P fault_bit[0] O
*I *2097:LO O *D sky130_fd_sc_hd__conb_1
*CAP
1 fault_bit[0] 0.000383766
2 *2097:LO 0.000383766
3 fault_bit[0] fault_location[1] 0.000419234
4 fault_bit[0] y[6] 8.22793e-06
*RES
1 *2097:LO fault_bit[0] 20.4409 
*END

*D_NET *7 0.00111838
*CONN
*P fault_bit[1] O
*I *2098:LO O *D sky130_fd_sc_hd__conb_1
*CAP
1 fault_bit[1] 0.000358842
2 *2098:LO 0.000358842
3 fault_bit[1] fault_vector[2] 0.0004007
*RES
1 *2098:LO fault_bit[1] 20.2761 
*END

*D_NET *8 0.00121597
*CONN
*P fault_bit[2] O
*I *2099:LO O *D sky130_fd_sc_hd__conb_1
*CAP
1 fault_bit[2] 0.000377167
2 *2099:LO 0.000377167
3 fault_bit[2] fault_location[0] 0
4 fault_bit[2] fault_type 0.000461637
5 fault_bit[2] *2067:A 0
*RES
1 *2099:LO fault_bit[2] 23.5746 
*END

*D_NET *9 0.00127368
*CONN
*P fault_detected O
*I *2100:LO O *D sky130_fd_sc_hd__conb_1
*CAP
1 fault_detected 0.000215336
2 *2100:LO 0.000215336
3 fault_detected fault_location[1] 0.000415142
4 fault_detected fault_vector[3] 0.000427871
*RES
1 *2100:LO fault_detected 19.8338 
*END

*D_NET *10 0.0011995
*CONN
*P fault_location[0] O
*I *2101:LO O *D sky130_fd_sc_hd__conb_1
*CAP
1 fault_location[0] 0.000386591
2 *2101:LO 0.000386591
3 fault_location[0] fault_type 0.000126028
4 fault_location[0] fault_vector[2] 0.000300294
5 fault_bit[2] fault_location[0] 0
*RES
1 *2101:LO fault_location[0] 23.6447 
*END

*D_NET *11 0.00151374
*CONN
*P fault_location[1] O
*I *2102:LO O *D sky130_fd_sc_hd__conb_1
*CAP
1 fault_location[1] 0.000312149
2 *2102:LO 0.000312149
3 fault_location[1] fault_vector[3] 5.50659e-05
4 fault_bit[0] fault_location[1] 0.000419234
5 fault_detected fault_location[1] 0.000415142
*RES
1 *2102:LO fault_location[1] 19.587 
*END

*D_NET *12 0.0013347
*CONN
*P fault_type O
*I *2103:LO O *D sky130_fd_sc_hd__conb_1
*CAP
1 fault_type 0.00034141
2 *2103:LO 0.00034141
3 fault_type fault_vector[2] 6.42095e-05
4 fault_bit[2] fault_type 0.000461637
5 fault_location[0] fault_type 0.000126028
*RES
1 *2103:LO fault_type 22.8801 
*END

*D_NET *13 0.00135237
*CONN
*P fault_vector[0] O
*I *2104:LO O *D sky130_fd_sc_hd__conb_1
*CAP
1 fault_vector[0] 0.000431725
2 *2104:LO 0.000431725
3 fault_vector[0] fault_vector[1] 0.000488918
*RES
1 *2104:LO fault_vector[0] 25.4607 
*END

*D_NET *14 0.00130349
*CONN
*P fault_vector[1] O
*I *2105:LO O *D sky130_fd_sc_hd__conb_1
*CAP
1 fault_vector[1] 0.000407285
2 *2105:LO 0.000407285
3 fault_vector[0] fault_vector[1] 0.000488918
*RES
1 *2105:LO fault_vector[1] 25.05 
*END

*D_NET *15 0.00150413
*CONN
*P fault_vector[2] O
*I *2106:LO O *D sky130_fd_sc_hd__conb_1
*CAP
1 fault_vector[2] 0.000369461
2 *2106:LO 0.000369461
3 fault_bit[1] fault_vector[2] 0.0004007
4 fault_location[0] fault_vector[2] 0.000300294
5 fault_type fault_vector[2] 6.42095e-05
*RES
1 *2106:LO fault_vector[2] 22.8278 
*END

*D_NET *16 0.00119634
*CONN
*P fault_vector[3] O
*I *2107:LO O *D sky130_fd_sc_hd__conb_1
*CAP
1 fault_vector[3] 0.000356701
2 *2107:LO 0.000356701
3 fault_detected fault_vector[3] 0.000427871
4 fault_location[1] fault_vector[3] 5.50659e-05
*RES
1 *2107:LO fault_vector[3] 18.9798 
*END

*D_NET *17 0.000960154
*CONN
*P h0[0] I
*I *2048:A I *D sky130_fd_sc_hd__buf_6
*CAP
1 h0[0] 0.000480077
2 *2048:A 0.000480077
*RES
1 h0[0] *2048:A 25.0363 
*END

*D_NET *18 0.00103408
*CONN
*P h0[1] I
*I *2059:A I *D sky130_fd_sc_hd__buf_12
*CAP
1 h0[1] 0.000459816
2 *2059:A 0.000459816
3 *2059:A *2063:A 5.52631e-05
4 *2059:A *2065:A 5.918e-05
*RES
1 h0[1] *2059:A 25.2327 
*END

*D_NET *19 0.00128059
*CONN
*P h0[2] I
*I *2063:A I *D sky130_fd_sc_hd__dlymetal6s2s_1
*CAP
1 h0[2] 0.000600642
2 *2063:A 0.000600642
3 *2063:A *2064:A 0
4 *2063:A *2065:A 2.40453e-05
5 *2063:A *440:86 0
6 *2059:A *2063:A 5.52631e-05
*RES
1 h0[2] *2063:A 21.616 
*END

*D_NET *20 0.0014697
*CONN
*P h0[3] I
*I *2064:A I *D sky130_fd_sc_hd__clkdlybuf4s25_1
*CAP
1 h0[3] 0.000611625
2 *2064:A 0.000611625
3 *2064:A *2066:A 0.000190051
4 *2064:A *311:12 5.63998e-05
5 *2064:A *440:86 0
6 *2064:A *440:99 0
7 *2063:A *2064:A 0
*RES
1 h0[3] *2064:A 24.3482 
*END

*D_NET *21 0.000951244
*CONN
*P h1[0] I
*I *2065:A I *D sky130_fd_sc_hd__clkbuf_2
*CAP
1 h1[0] 0.000434009
2 *2065:A 0.000434009
3 *2059:A *2065:A 5.918e-05
4 *2063:A *2065:A 2.40453e-05
*RES
1 h1[0] *2065:A 23.7519 
*END

*D_NET *22 0.00164524
*CONN
*P h1[1] I
*I *2066:A I *D sky130_fd_sc_hd__clkbuf_2
*CAP
1 h1[1] 0.000676827
2 *2066:A 0.000676827
3 *2066:A *1834:A 0
4 *2066:A *1885:A 0
5 *2066:A *2067:A 0
6 *2066:A *311:12 0.000101535
7 *2064:A *2066:A 0.000190051
*RES
1 h1[1] *2066:A 25.6345 
*END

*D_NET *23 0.000872583
*CONN
*P h1[2] I
*I *2067:A I *D sky130_fd_sc_hd__dlymetal6s2s_1
*CAP
1 h1[2] 0.000436291
2 *2067:A 0.000436291
3 fault_bit[2] *2067:A 0
4 *2066:A *2067:A 0
*RES
1 h1[2] *2067:A 22.9674 
*END

*D_NET *24 0.00129652
*CONN
*P h1[3] I
*I *2068:A I *D sky130_fd_sc_hd__clkdlybuf4s25_1
*CAP
1 h1[3] 0.000636889
2 *2068:A 0.000636889
3 *2068:A *514:10 2.27416e-05
*RES
1 h1[3] *2068:A 26.4875 
*END

*D_NET *25 0.00130349
*CONN
*P h2[0] I
*I *2069:A I *D sky130_fd_sc_hd__clkdlybuf4s25_1
*CAP
1 h2[0] 0.000407285
2 *2069:A 0.000407285
3 *2069:A y[0] 0.000488918
*RES
1 h2[0] *2069:A 25.05 
*END

*D_NET *26 0.00189947
*CONN
*P h2[1] I
*I *2049:A I *D sky130_fd_sc_hd__dlymetal6s4s_1
*CAP
1 h2[1] 0.00056259
2 *2049:A 0.00056259
3 *2049:A y[0] 0.000567001
4 *2049:A *1731:B1 0
5 *2049:A *124:10 0
6 *2049:A *447:43 0.000150632
7 *2049:A *465:12 0
8 *2049:A *519:10 5.26184e-05
9 *2049:A *519:38 4.038e-06
*RES
1 h2[1] *2049:A 29.3714 
*END

*D_NET *27 0.00142109
*CONN
*P h2[2] I
*I *2050:A I *D sky130_fd_sc_hd__clkdlybuf4s25_1
*CAP
1 h2[2] 0.000438658
2 *2050:A 0.000438658
3 *2050:A *2051:A 0
4 *2050:A *2071:A 0
5 *2050:A *466:23 5.41609e-05
6 diag_done *2050:A 0.000489614
*RES
1 h2[2] *2050:A 25.8714 
*END

*D_NET *28 0.00143112
*CONN
*P h2[3] I
*I *2051:A I *D sky130_fd_sc_hd__clkdlybuf4s25_1
*CAP
1 h2[3] 0.000463781
2 *2051:A 0.000463781
3 *2051:A *466:6 4.05411e-05
4 diag_done *2051:A 0.000463018
5 *2050:A *2051:A 0
*RES
1 h2[3] *2051:A 25.9964 
*END

*D_NET *29 0.00191573
*CONN
*P h3[0] I
*I *2052:A I *D sky130_fd_sc_hd__clkbuf_2
*CAP
1 h3[0] 0.000558688
2 *2052:A 0.000558688
3 *2052:A y[2] 0.000608301
4 *2052:A y[3] 0
5 *2052:A *227:8 0
6 *2052:A *340:14 0.000190051
*RES
1 h3[0] *2052:A 21.4652 
*END

*D_NET *30 0.000938756
*CONN
*P h3[1] I
*I *2053:A I *D sky130_fd_sc_hd__clkbuf_2
*CAP
1 h3[1] 0.000361899
2 *2053:A 0.000361899
3 *2053:A y[3] 0.000214959
4 *2053:A *340:14 0
*RES
1 h3[1] *2053:A 19.6023 
*END

*D_NET *31 0.00089173
*CONN
*P h3[2] I
*I *2054:A I *D sky130_fd_sc_hd__dlymetal6s4s_1
*CAP
1 h3[2] 0.000445865
2 *2054:A 0.000445865
3 *2054:A y[4] 0
4 *2054:A *294:12 0
*RES
1 h3[2] *2054:A 19.8338 
*END

*D_NET *32 0.00191333
*CONN
*P h3[3] I
*I *2055:A I *D sky130_fd_sc_hd__clkdlybuf4s25_1
*CAP
1 h3[3] 0.000626716
2 *2055:A 0.000626716
3 *2055:A y[9] 0.000527493
4 *2055:A *1937:A2 8.06427e-05
5 *2055:A *1937:B1 0
6 *2055:A *470:10 5.17614e-05
*RES
1 h3[3] *2055:A 29.6304 
*END

*D_NET *33 0.00153681
*CONN
*P rst I
*I *2056:A I *D sky130_fd_sc_hd__clkdlybuf4s25_1
*CAP
1 rst 0.000659362
2 *2056:A 0.000659362
3 *2056:A *2057:A 0.000218083
4 *2056:A *491:91 0
5 *2056:A *491:100 0
*RES
1 rst *2056:A 27.4859 
*END

*D_NET *34 0.00142057
*CONN
*P start_diag I
*I *2057:A I *D sky130_fd_sc_hd__clkdlybuf4s25_1
*CAP
1 start_diag 0.000601242
2 *2057:A 0.000601242
3 *2057:A *423:12 0
4 *2056:A *2057:A 0.000218083
5 *3:24 *2057:A 0
*RES
1 start_diag *2057:A 26.2366 
*END

*D_NET *35 0.00233966
*CONN
*P x[0] I
*I *2058:A I *D sky130_fd_sc_hd__clkdlybuf4s25_1
*CAP
1 x[0] 0.0010977
2 *2058:A 0.0010977
3 *2058:A *2060:A 5.36274e-05
4 *2058:A *2061:A 0
5 *2058:A *64:20 2.00693e-05
6 *2058:A *491:106 0
7 *3:24 *2058:A 7.05532e-05
*RES
1 x[0] *2058:A 29.0236 
*END

*D_NET *36 0.00170746
*CONN
*P x[1] I
*I *2060:A I *D sky130_fd_sc_hd__clkdlybuf4s25_1
*CAP
1 x[1] 0.000772061
2 *2060:A 0.000772061
3 *2060:A *2061:A 0.000109709
4 *2058:A *2060:A 5.36274e-05
*RES
1 x[1] *2060:A 31.234 
*END

*D_NET *37 0.00194541
*CONN
*P x[2] I
*I *2061:A I *D sky130_fd_sc_hd__clkdlybuf4s25_1
*CAP
1 x[2] 0.000752809
2 *2061:A 0.000752809
3 *2061:A *1961:A1 0
4 *2061:A *1963:A_N 4.19535e-05
5 *2061:A *409:38 8.16443e-05
6 diag_busy *2061:A 0.000206483
7 *2058:A *2061:A 0
8 *2060:A *2061:A 0.000109709
*RES
1 x[2] *2061:A 19.8928 
*END

*D_NET *38 0.00200071
*CONN
*P x[3] I
*I *2062:A I *D sky130_fd_sc_hd__clkdlybuf4s25_1
*CAP
1 x[3] 0.000577828
2 *2062:A 0.000577828
3 *2062:A *1985:D 2.72967e-05
4 *2062:A *2022:A 2.77126e-05
5 *2062:A *492:8 0.000360894
6 diag_busy *2062:A 0.000429154
*RES
1 x[3] *2062:A 25.5261 
*END

*D_NET *39 0.00173907
*CONN
*P y[0] O
*I *2072:X O *D sky130_fd_sc_hd__clkdlybuf4s25_1
*CAP
1 y[0] 0.000313959
2 *2072:X 0.000313959
3 y[0] *209:6 5.52302e-05
4 y[0] *465:12 0
5 *2049:A y[0] 0.000567001
6 *2069:A y[0] 0.000488918
*RES
1 *2072:X y[0] 26.8714 
*END

*D_NET *40 0.00146569
*CONN
*P y[1] O
*I *2073:X O *D sky130_fd_sc_hd__clkdlybuf4s25_1
*CAP
1 y[1] 0.000520864
2 *2073:X 0.000520864
3 y[1] y[2] 0.000423965
4 y[1] *2073:A 0
5 y[1] *340:14 0
*RES
1 *2073:X y[1] 22.8695 
*END

*D_NET *41 0.00179356
*CONN
*P y[2] O
*I *2074:X O *D sky130_fd_sc_hd__dlymetal6s2s_1
*CAP
1 y[2] 0.00034465
2 *2074:X 0.00034465
3 y[2] *340:14 7.19919e-05
4 y[1] y[2] 0.000423965
5 *2052:A y[2] 0.000608301
*RES
1 *2074:X y[2] 19.8032 
*END

*D_NET *42 0.00101464
*CONN
*P y[3] O
*I *2075:X O *D sky130_fd_sc_hd__buf_6
*CAP
1 y[3] 0.000399841
2 *2075:X 0.000399841
3 y[3] *2075:A 0
4 *2052:A y[3] 0
5 *2053:A y[3] 0.000214959
*RES
1 *2075:X y[3] 19.7464 
*END

*D_NET *43 0.0026922
*CONN
*P y[4] O
*I *2076:X O *D sky130_fd_sc_hd__buf_6
*CAP
1 y[4] 0.00114465
2 *2076:X 0.00114465
3 y[4] *1744:B 8.89385e-05
4 y[4] *1814:B 0.00015234
5 y[4] *2076:A 0
6 y[4] *206:16 0.000106542
7 y[4] *241:8 5.50812e-05
8 y[4] *291:10 0
9 y[4] *340:14 0
10 *2054:A y[4] 0
*RES
1 *2076:X y[4] 25.4683 
*END

*D_NET *44 0.00123277
*CONN
*P y[5] O
*I *2077:X O *D sky130_fd_sc_hd__buf_6
*CAP
1 y[5] 0.000616386
2 *2077:X 0.000616386
*RES
1 *2077:X y[5] 27.8076 
*END

*D_NET *45 0.00195178
*CONN
*P y[6] O
*I *2078:X O *D sky130_fd_sc_hd__buf_6
*CAP
1 y[6] 0.000813571
2 *2078:X 0.000813571
3 y[6] *2078:A 0.000316408
4 fault_bit[0] y[6] 8.22793e-06
*RES
1 *2078:X y[6] 27.9754 
*END

*D_NET *46 0.00126812
*CONN
*P y[7] O
*I *2079:X O *D sky130_fd_sc_hd__buf_6
*CAP
1 y[7] 0.00063406
2 *2079:X 0.00063406
*RES
1 *2079:X y[7] 26.1839 
*END

*D_NET *47 0.001554
*CONN
*P y[8] O
*I *2080:X O *D sky130_fd_sc_hd__buf_6
*CAP
1 y[8] 0.000699563
2 *2080:X 0.000699563
3 y[8] *1937:A1 9.77274e-05
4 y[8] *2080:A 5.71472e-05
*RES
1 *2080:X y[8] 27.8268 
*END

*D_NET *48 0.00190357
*CONN
*P y[9] O
*I *2081:X O *D sky130_fd_sc_hd__buf_6
*CAP
1 y[9] 0.000604566
2 *2081:X 0.000604566
3 y[9] *1937:A1 6.79057e-05
4 y[9] *2081:A 9.90367e-05
5 *2055:A y[9] 0.000527493
*RES
1 *2081:X y[9] 28.3625 
*END

*D_NET *49 0.000457994
*CONN
*I *2002:D I *D sky130_fd_sc_hd__dfxtp_2
*I *1949:X O *D sky130_fd_sc_hd__and2_2
*CAP
1 *2002:D 0.00012513
2 *1949:X 0.00012513
3 *2002:D *2002:CLK 3.4846e-06
4 *2002:D *2008:D 0.00014925
5 *2002:D *2027:A 5.49995e-05
*RES
1 *1949:X *2002:D 30.2473 
*END

*D_NET *50 0.00101579
*CONN
*I *2003:D I *D sky130_fd_sc_hd__dfxtp_2
*I *1948:X O *D sky130_fd_sc_hd__and2_2
*CAP
1 *2003:D 0.000253589
2 *1948:X 0.000253589
3 *2003:D *1948:B 0.000272175
4 *2003:D *2045:A 0.000150508
5 *2003:D *416:25 1.37341e-05
6 *2003:D *491:31 6.78055e-06
7 *2003:D *491:35 6.54177e-05
*RES
1 *1948:X *2003:D 33.533 
*END

*D_NET *51 0.000786087
*CONN
*I *2004:D I *D sky130_fd_sc_hd__dfxtp_2
*I *1947:X O *D sky130_fd_sc_hd__and2_2
*CAP
1 *2004:D 0.000178936
2 *1947:X 0.000178936
3 *2004:D *1965:A0 0
4 *2004:D *419:18 0.000278574
5 *2004:D *491:16 0.000149641
*RES
1 *1947:X *2004:D 32.1759 
*END

*D_NET *52 0.000298645
*CONN
*I *2005:D I *D sky130_fd_sc_hd__dfxtp_2
*I *1946:X O *D sky130_fd_sc_hd__and2_2
*CAP
1 *2005:D 9.76038e-05
2 *1946:X 9.76038e-05
3 *2005:D *526:10 0.000103437
*RES
1 *1946:X *2005:D 29.5152 
*END

*D_NET *53 0.00146689
*CONN
*I *2006:D I *D sky130_fd_sc_hd__dfxtp_2
*I *1945:X O *D sky130_fd_sc_hd__and2_2
*CAP
1 *2006:D 0.000388162
2 *1945:X 0.000388162
3 *2006:D *2009:CLK 0
4 *2006:D *2009:D 5.52238e-05
5 *2006:D *2034:A 0.000170976
6 *2006:D *2040:A 0.000136485
7 *2006:D *421:12 0.000115746
8 *2006:D *421:16 5.52302e-05
9 *2006:D *493:88 0
10 *2006:D *493:94 0.000156903
*RES
1 *1945:X *2006:D 35.1759 
*END

*D_NET *54 0.00636939
*CONN
*I *2007:D I *D sky130_fd_sc_hd__dfxtp_2
*I *1944:X O *D sky130_fd_sc_hd__and2_2
*CAP
1 *2007:D 0.00281276
2 *1944:X 0.00281276
3 *2007:D *1939:B 0
4 *2007:D *1950:A1 0.000157013
5 *2007:D *1950:B1 0.000354598
6 *2007:D *1952:A 7.22717e-05
7 *2007:D *1954:A 0
8 *2007:D *2007:CLK 0.000147136
9 *2007:D *2011:D 0
10 *2007:D *2035:A 1.28585e-05
11 *2007:D *418:81 0
12 *2007:D *419:33 0
13 *3:24 *2007:D 0
*RES
1 *1944:X *2007:D 48.1258 
*END

*D_NET *55 0.00166639
*CONN
*I *2008:D I *D sky130_fd_sc_hd__dfxtp_2
*I *1942:X O *D sky130_fd_sc_hd__and2_2
*CAP
1 *2008:D 0.000561768
2 *1942:X 0.000561768
3 *2008:D *1949:A 0.00017635
4 *2008:D *1956:A1 2.24804e-05
5 *2008:D *1956:A2 9.84673e-05
6 *2008:D *2008:CLK 5.33005e-05
7 *2008:D *410:10 3.87228e-05
8 *2008:D *438:10 4.27842e-06
9 *2002:D *2008:D 0.00014925
*RES
1 *1942:X *2008:D 38.7116 
*END

*D_NET *56 0.00130233
*CONN
*I *2009:D I *D sky130_fd_sc_hd__dfxtp_2
*I *1941:X O *D sky130_fd_sc_hd__and2_2
*CAP
1 *2009:D 0.00033483
2 *1941:X 0.00033483
3 *2009:D *1941:A 0.000142856
4 *2009:D *1953:A 0
5 *2009:D *1967:B 1.64343e-05
6 *2009:D *2009:CLK 4.1331e-06
7 *2009:D *2040:A 0.000181623
8 *2009:D *493:94 0.000232399
9 *2006:D *2009:D 5.52238e-05
*RES
1 *1941:X *2009:D 34.3902 
*END

*D_NET *57 0.000334998
*CONN
*I *2010:D I *D sky130_fd_sc_hd__dfxtp_2
*I *1940:X O *D sky130_fd_sc_hd__and2_2
*CAP
1 *2010:D 9.60402e-05
2 *1940:X 9.60402e-05
3 *2010:D *1940:B 0.000126483
4 *2010:D *1948:B 0
5 *2010:D *419:16 1.64343e-05
*RES
1 *1940:X *2010:D 29.7116 
*END

*D_NET *58 0.0016007
*CONN
*I *2011:D I *D sky130_fd_sc_hd__dfxtp_2
*I *1939:X O *D sky130_fd_sc_hd__and2_2
*CAP
1 *2011:D 0.000603412
2 *1939:X 0.000603412
3 *2011:D *1944:A 5.76121e-05
4 *2011:D *1988:CLK 0.000145311
5 *2011:D *2011:CLK 0.000190955
6 *2011:D *2071:A 0
7 *2007:D *2011:D 0
*RES
1 *1939:X *2011:D 38.533 
*END

*D_NET *59 0.000506106
*CONN
*I *2012:D I *D sky130_fd_sc_hd__dfxtp_2
*I *1938:X O *D sky130_fd_sc_hd__and2_2
*CAP
1 *2012:D 0.000185861
2 *1938:X 0.000185861
3 *2012:D *2012:CLK 0.000126416
4 *2012:D *2019:A 3.69047e-06
5 *2012:D *448:14 4.27842e-06
*RES
1 *1938:X *2012:D 30.9393 
*END

*D_NET *60 0.000334676
*CONN
*I *2035:A I *D sky130_fd_sc_hd__dlygate4sd3_1
*I *1950:X O *D sky130_fd_sc_hd__a211o_2
*CAP
1 *2035:A 0.000115625
2 *1950:X 0.000115625
3 *2035:A *1950:B1 3.34197e-05
4 *2035:A *472:10 5.71472e-05
5 *2007:D *2035:A 1.28585e-05
6 *3:24 *2035:A 0
*RES
1 *1950:X *2035:A 29.7786 
*END

*D_NET *61 0.00297464
*CONN
*I *2042:A I *D sky130_fd_sc_hd__dlygate4sd3_1
*I *1951:X O *D sky130_fd_sc_hd__o41a_2
*CAP
1 *2042:A 0.000766195
2 *1951:X 0.000766195
3 *2042:A *1938:B 0.000151619
4 *2042:A *1951:A3 0.000353086
5 *2042:A *1964:C 0.000185643
6 *2042:A *2012:CLK 0
7 *2042:A *425:12 0.00014285
8 *2042:A *425:14 0.000609051
*RES
1 *1951:X *2042:A 44.4214 
*END

*D_NET *62 0.00181666
*CONN
*I *1981:D I *D sky130_fd_sc_hd__dfxtp_2
*I *1954:Y O *D sky130_fd_sc_hd__nor2_2
*CAP
1 *1981:D 0.000547156
2 *1954:Y 0.000547156
3 *1981:D *1961:A0 0.000227179
4 *1981:D *1963:A_N 0.000148514
5 *1981:D *1981:CLK 5.54817e-06
6 *1981:D *409:38 0.000161664
7 *1981:D *478:21 4.93636e-05
8 *1981:D *478:45 4.41329e-06
9 *3:24 *1981:D 0.000125668
*RES
1 *1954:Y *1981:D 37.1134 
*END

*D_NET *63 0.000329755
*CONN
*I *1982:D I *D sky130_fd_sc_hd__dfxtp_2
*I *1956:X O *D sky130_fd_sc_hd__o21a_2
*CAP
1 *1982:D 0.000137375
2 *1956:X 0.000137375
3 *1982:D *1956:A2 5.50052e-05
*RES
1 *1956:X *1982:D 20.6402 
*END

*D_NET *64 0.0024431
*CONN
*I *1983:D I *D sky130_fd_sc_hd__dfxtp_2
*I *1958:X O *D sky130_fd_sc_hd__and2_2
*CAP
1 *1983:D 0
2 *1958:X 0.000986142
3 *64:20 0.000986142
4 *64:20 *1957:A0 6.35976e-05
5 *64:20 *1958:B 4.26229e-05
6 *64:20 *409:38 0.000344531
7 *2058:A *64:20 2.00693e-05
*RES
1 *1958:X *64:20 43.5545 
2 *64:20 *1983:D 9.3 
*END

*D_NET *65 0.00127846
*CONN
*I *1984:D I *D sky130_fd_sc_hd__dfxtp_2
*I *1960:X O *D sky130_fd_sc_hd__and2_2
*CAP
1 *1984:D 0.000336806
2 *1960:X 0.000336806
3 *1984:D *1954:A 6.05139e-05
4 *1984:D *1960:B 3.11088e-05
5 *1984:D *1961:A1 0
6 *1984:D *1962:A 0
7 *1984:D *1962:B 4.57445e-05
8 *1984:D *1963:A_N 0.000108432
9 *1984:D *1963:B 0.000157719
10 *1984:D *1984:CLK 0.000183726
11 *1984:D *1986:D 1.76039e-05
*RES
1 *1960:X *1984:D 35.6714 
*END

*D_NET *66 0.000784006
*CONN
*I *1985:D I *D sky130_fd_sc_hd__dfxtp_2
*I *1962:X O *D sky130_fd_sc_hd__and2_2
*CAP
1 *1985:D 0.000220713
2 *1962:X 0.000220713
3 *1985:D *1984:CLK 8.15939e-05
4 *1985:D *1985:CLK 8.06427e-05
5 *1985:D *1986:D 0.000153047
6 *1985:D *2070:A 0
7 *2062:A *1985:D 2.72967e-05
*RES
1 *1962:X *1985:D 32.4795 
*END

*D_NET *67 0.000814225
*CONN
*I *1986:D I *D sky130_fd_sc_hd__dfxtp_2
*I *1963:X O *D sky130_fd_sc_hd__and3b_2
*CAP
1 *1986:D 0.0002713
2 *1963:X 0.0002713
3 *1986:D *1962:B 0
4 *1986:D *1963:A_N 0
5 *1986:D *1984:CLK 8.45386e-05
6 *1986:D *2070:A 0
7 *1986:D *420:62 1.64343e-05
8 *1984:D *1986:D 1.76039e-05
9 *1985:D *1986:D 0.000153047
*RES
1 *1963:X *1986:D 33.3545 
*END

*D_NET *68 0.00133651
*CONN
*I *1987:D I *D sky130_fd_sc_hd__dfxtp_2
*I *1966:X O *D sky130_fd_sc_hd__and2_2
*CAP
1 *1987:D 0.000319231
2 *1966:X 0.000319231
3 *1987:D *1954:A 0.000338783
4 *1987:D *1966:B 5.52238e-05
5 *1987:D *1987:CLK 0.000123664
6 *3:24 *1987:D 0.000180374
*RES
1 *1966:X *1987:D 35.975 
*END

*D_NET *69 0.000320913
*CONN
*I *1988:D I *D sky130_fd_sc_hd__dfxtp_2
*I *1967:X O *D sky130_fd_sc_hd__and2_2
*CAP
1 *1988:D 0.000132845
2 *1967:X 0.000132845
3 *1988:D *1988:CLK 5.52238e-05
*RES
1 *1967:X *1988:D 20.6402 
*END

*D_NET *70 0.000705405
*CONN
*I *1989:D I *D sky130_fd_sc_hd__dfxtp_2
*I *1968:X O *D sky130_fd_sc_hd__and2_2
*CAP
1 *1989:D 0.000293711
2 *1968:X 0.000293711
3 *1989:D *2022:A 3.32132e-06
4 *1989:D *2024:A 8.25843e-06
5 *1989:D *416:46 0.000106403
6 *1989:D *418:15 0
7 *1989:D *418:47 0
8 *1989:D *438:10 0
9 *1989:D *445:23 0
*RES
1 *1968:X *1989:D 32.8545 
*END

*D_NET *71 0.000446571
*CONN
*I *1990:D I *D sky130_fd_sc_hd__dfxtp_2
*I *1969:X O *D sky130_fd_sc_hd__and2_2
*CAP
1 *1990:D 0.000169203
2 *1969:X 0.000169203
3 *1990:D *1990:CLK 0.000108166
*RES
1 *1969:X *1990:D 21.1938 
*END

*D_NET *72 0.000920741
*CONN
*I *1991:D I *D sky130_fd_sc_hd__dfxtp_2
*I *1970:X O *D sky130_fd_sc_hd__and2_2
*CAP
1 *1991:D 0.000344107
2 *1970:X 0.000344107
3 *1991:D *1968:B 7.77652e-05
4 *1991:D *1992:D 0
5 *1991:D *420:8 0.000154762
6 *1991:D *439:19 0
*RES
1 *1970:X *1991:D 33.8857 
*END

*D_NET *73 0.00158711
*CONN
*I *1992:D I *D sky130_fd_sc_hd__dfxtp_2
*I *1971:X O *D sky130_fd_sc_hd__and2_2
*CAP
1 *1992:D 0.000515667
2 *1971:X 0.000515667
3 *1992:D *1989:CLK 7.171e-05
4 *1992:D *1992:CLK 5.52238e-05
5 *1992:D *2022:A 8.95387e-05
6 *1992:D *420:8 0
7 *1992:D *420:10 0
8 *1992:D *420:12 0
9 *1992:D *440:8 8.00806e-05
10 *1992:D *492:34 0.000259218
11 *1991:D *1992:D 0
*RES
1 *1971:X *1992:D 38.8009 
*END

*D_NET *74 0.000749649
*CONN
*I *1993:D I *D sky130_fd_sc_hd__dfxtp_2
*I *1972:X O *D sky130_fd_sc_hd__and2_2
*CAP
1 *1993:D 0.000277484
2 *1972:X 0.000277484
3 *1993:D *1972:A 0
4 *1993:D *1973:A 0.000105163
5 *1993:D *1993:CLK 8.95186e-05
6 *1993:D *422:28 0
*RES
1 *1972:X *1993:D 32.1714 
*END

*D_NET *75 0.000432574
*CONN
*I *1994:D I *D sky130_fd_sc_hd__dfxtp_2
*I *1973:X O *D sky130_fd_sc_hd__and2_2
*CAP
1 *1994:D 0.000201852
2 *1973:X 0.000201852
3 *1994:D *1973:B 1.24368e-05
4 *1994:D *1994:CLK 1.64343e-05
*RES
1 *1973:X *1994:D 30.3545 
*END

*D_NET *76 0.000705333
*CONN
*I *1995:D I *D sky130_fd_sc_hd__dfxtp_2
*I *1974:X O *D sky130_fd_sc_hd__and2_2
*CAP
1 *1995:D 0.000257919
2 *1974:X 0.000257919
3 *1995:D *418:31 2.8266e-06
4 *1995:D *443:22 0
5 *1995:D *494:23 9.90431e-05
6 *1995:D *494:32 8.76257e-05
*RES
1 *1974:X *1995:D 31.5152 
*END

*D_NET *77 0.000987497
*CONN
*I *1996:D I *D sky130_fd_sc_hd__dfxtp_2
*I *1975:X O *D sky130_fd_sc_hd__and2_2
*CAP
1 *1996:D 0.000395011
2 *1975:X 0.000395011
3 *1996:D *1975:B 8.86115e-05
4 *1996:D *1995:CLK 0
5 *1996:D *1996:CLK 1.64343e-05
6 *1996:D *443:22 9.24299e-05
*RES
1 *1975:X *1996:D 33.4259 
*END

*D_NET *78 0.000386066
*CONN
*I *1997:D I *D sky130_fd_sc_hd__dfxtp_2
*I *1976:X O *D sky130_fd_sc_hd__and2_2
*CAP
1 *1997:D 9.11462e-05
2 *1976:X 9.11462e-05
3 *1997:D *1976:B 9.96487e-05
4 *1997:D *447:16 0.000104125
*RES
1 *1976:X *1997:D 29.7473 
*END

*D_NET *79 0.000622927
*CONN
*I *1998:D I *D sky130_fd_sc_hd__dfxtp_2
*I *1977:X O *D sky130_fd_sc_hd__and2_2
*CAP
1 *1998:D 0.000311463
2 *1977:X 0.000311463
3 *1998:D *1679:A3 0
4 *1998:D *1999:D 0
5 *1998:D *155:12 0
*RES
1 *1977:X *1998:D 32.7652 
*END

*D_NET *80 0.00148698
*CONN
*I *1999:D I *D sky130_fd_sc_hd__dfxtp_2
*I *1978:X O *D sky130_fd_sc_hd__and2_2
*CAP
1 *1999:D 0.000538722
2 *1978:X 0.000538722
3 *1999:D *1976:A 2.79092e-05
4 *1999:D *1999:CLK 0
5 *1999:D *2000:D 0
6 *1999:D *108:8 3.32132e-06
7 *1999:D *109:14 1.64343e-05
8 *1999:D *422:12 0.000151333
9 *1999:D *422:94 0
10 *1999:D *449:19 0
11 *1999:D *494:45 0.000143044
12 *1999:D *494:47 6.74911e-05
13 *1998:D *1999:D 0
*RES
1 *1978:X *1999:D 38.8187 
*END

*D_NET *81 0.000768403
*CONN
*I *2000:D I *D sky130_fd_sc_hd__dfxtp_2
*I *1979:X O *D sky130_fd_sc_hd__and2_2
*CAP
1 *2000:D 0.000269229
2 *1979:X 0.000269229
3 *2000:D *1999:CLK 4.46186e-06
4 *2000:D *141:14 1.64343e-05
5 *2000:D *155:12 4.87669e-06
6 *2000:D *422:14 5.33433e-05
7 *2000:D *422:24 7.48091e-05
8 *2000:D *422:94 7.6021e-05
9 *1999:D *2000:D 0
*RES
1 *1979:X *2000:D 31.8902 
*END

*D_NET *82 0.00118852
*CONN
*I *1606:A I *D sky130_fd_sc_hd__nand2_2
*I *1706:A1 I *D sky130_fd_sc_hd__a32o_2
*I *1603:X O *D sky130_fd_sc_hd__a22o_2
*CAP
1 *1606:A 3.08975e-05
2 *1706:A1 0.000196466
3 *1603:X 0.000130775
4 *82:8 0.000358138
5 *1706:A1 *1606:B 0.000150611
6 *1706:A1 *1608:A 5.48488e-05
7 *1706:A1 *1611:B 0
8 *1706:A1 *1706:A2 0.000227736
9 *1706:A1 *86:10 3.90513e-05
10 *82:8 *444:31 0
*RES
1 *1603:X *82:8 11.3893 
2 *82:8 *1706:A1 23.8893 
3 *82:8 *1606:A 9.83571 
*END

*D_NET *83 0.00113702
*CONN
*I *1702:A I *D sky130_fd_sc_hd__and3_2
*I *1703:B1 I *D sky130_fd_sc_hd__a21oi_2
*I *1604:X O *D sky130_fd_sc_hd__and4_2
*CAP
1 *1702:A 0
2 *1703:B1 9.82193e-05
3 *1604:X 9.16102e-05
4 *83:12 0.000189829
5 *1703:B1 *1702:B 0.000148903
6 *1703:B1 *181:12 3.18676e-05
7 *1703:B1 *256:14 3.67257e-05
8 *1703:B1 *257:10 5.03694e-05
9 *83:12 *1696:B 0.00017309
10 *83:12 *1702:B 0.00010326
11 *83:12 *1702:C 9.41642e-05
12 *83:12 *443:112 6.56795e-05
13 *83:12 *443:126 5.33005e-05
*RES
1 *1604:X *83:12 21.4964 
2 *83:12 *1703:B1 21.1929 
3 *83:12 *1702:A 9.3 
*END

*D_NET *84 0.00125197
*CONN
*I *1706:A2 I *D sky130_fd_sc_hd__a32o_2
*I *1606:B I *D sky130_fd_sc_hd__nand2_2
*I *1605:Y O *D sky130_fd_sc_hd__nand4_2
*CAP
1 *1706:A2 5.07057e-05
2 *1606:B 7.19321e-05
3 *1605:Y 9.58675e-05
4 *84:10 0.000218505
5 *1606:B *1605:A 3.0285e-05
6 *1606:B *497:71 0
7 *1606:B *497:75 2.8266e-06
8 *1706:A2 *1605:A 4.98055e-06
9 *1706:A2 *1608:B 0.00020455
10 *1706:A2 *86:10 1.02504e-05
11 *84:10 *1605:D 0
12 *84:10 *173:8 0.00018372
13 *1706:A1 *1606:B 0.000150611
14 *1706:A1 *1706:A2 0.000227736
*RES
1 *1605:Y *84:10 15.9964 
2 *84:10 *1606:B 15.7464 
3 *84:10 *1706:A2 16.6571 
*END

*D_NET *85 0.000398106
*CONN
*I *1608:A I *D sky130_fd_sc_hd__xnor2_2
*I *1606:Y O *D sky130_fd_sc_hd__nand2_2
*CAP
1 *1608:A 8.18688e-05
2 *1606:Y 8.18688e-05
3 *1608:A *1611:B 0.000150618
4 *1608:A *173:8 2.89016e-05
5 *1706:A1 *1608:A 5.48488e-05
*RES
1 *1606:Y *1608:A 30.0821 
*END

*D_NET *86 0.00099567
*CONN
*I *1706:A3 I *D sky130_fd_sc_hd__a32o_2
*I *1608:B I *D sky130_fd_sc_hd__xnor2_2
*I *1607:X O *D sky130_fd_sc_hd__and2_2
*CAP
1 *1706:A3 0
2 *1608:B 9.55487e-05
3 *1607:X 0.000201032
4 *86:10 0.000296581
5 *1608:B *1605:A 5.80706e-06
6 *1608:B *443:62 0
7 *1608:B *443:81 0
8 *86:10 *172:10 0.00014285
9 *86:10 *443:81 0
10 *86:10 *506:22 0
11 *1706:A1 *86:10 3.90513e-05
12 *1706:A2 *1608:B 0.00020455
13 *1706:A2 *86:10 1.02504e-05
*RES
1 *1607:X *86:10 17.1036 
2 *86:10 *1608:B 16.3536 
3 *86:10 *1706:A3 13.8 
*END

*D_NET *87 0.000998512
*CONN
*I *1706:B1 I *D sky130_fd_sc_hd__a32o_2
*I *1611:A I *D sky130_fd_sc_hd__xnor2_2
*I *1608:Y O *D sky130_fd_sc_hd__xnor2_2
*CAP
1 *1706:B1 0.000267714
2 *1611:A 0.000146522
3 *1608:Y 0
4 *87:6 0.000414236
5 *1611:A *1611:B 0
6 *1611:A *2092:A 0
7 *1706:B1 *1611:B 0
8 *1706:B1 *2092:A 0
9 *1706:B1 *88:6 0.000133325
10 *1706:B1 *184:12 3.67142e-05
*RES
1 *1608:Y *87:6 13.8 
2 *87:6 *1611:A 16.3536 
3 *87:6 *1706:B1 18.9607 
*END

*D_NET *88 0.00131183
*CONN
*I *1706:B2 I *D sky130_fd_sc_hd__a32o_2
*I *1611:B I *D sky130_fd_sc_hd__xnor2_2
*I *1609:X O *D sky130_fd_sc_hd__and4_2
*CAP
1 *1706:B2 0
2 *1611:B 0.000312843
3 *1609:X 0.0002011
4 *88:6 0.000513943
5 *1608:A *1611:B 0.000150618
6 *1611:A *1611:B 0
7 *1706:A1 *1611:B 0
8 *1706:B1 *1611:B 0
9 *1706:B1 *88:6 0.000133325
*RES
1 *1609:X *88:6 12.7107 
2 *88:6 *1611:B 24.2286 
3 *88:6 *1706:B2 9.3 
*END

*D_NET *89 0.0016705
*CONN
*I *1625:A1 I *D sky130_fd_sc_hd__a22oi_2
*I *1624:A I *D sky130_fd_sc_hd__and4_2
*I *1610:Y O *D sky130_fd_sc_hd__nand4_2
*CAP
1 *1625:A1 0
2 *1624:A 0.000111588
3 *1610:Y 0.000364834
4 *89:20 0.000476422
5 *1624:A *1624:B 2.59355e-05
6 *1624:A *1624:C 5.33005e-05
7 *1624:A *442:36 2.89016e-05
8 *1624:A *442:77 0.000171375
9 *1624:A *506:36 0.00017309
10 *89:20 *1624:C 5.52302e-05
11 *89:20 *1625:A2 3.99614e-06
12 *89:20 *1625:B2 3.05094e-05
13 *89:20 *1626:B 3.69047e-06
14 *89:20 *1676:B 9.22103e-06
15 *89:20 *106:29 2.55948e-05
16 *89:20 *443:41 3.08047e-05
17 *89:20 *497:75 7.6644e-05
18 *89:20 *497:81 2.93638e-05
*RES
1 *1610:Y *89:20 24.05 
2 *89:20 *1624:A 21.6214 
3 *89:20 *1625:A1 9.3 
*END

*D_NET *90 0.000549815
*CONN
*I *1621:A I *D sky130_fd_sc_hd__xor2_2
*I *1682:A1 I *D sky130_fd_sc_hd__o21bai_2
*I *1611:Y O *D sky130_fd_sc_hd__xnor2_2
*CAP
1 *1621:A 0
2 *1682:A1 0.000102947
3 *1611:Y 0.000122959
4 *90:8 0.000225906
5 *1682:A1 *1682:A2 9.80029e-05
*RES
1 *1611:Y *90:8 16.05 
2 *90:8 *1682:A1 16.3536 
3 *90:8 *1621:A 13.8 
*END

*D_NET *91 0.00371826
*CONN
*I *1624:B I *D sky130_fd_sc_hd__and4_2
*I *1625:B2 I *D sky130_fd_sc_hd__a22oi_2
*I *1620:A I *D sky130_fd_sc_hd__xor2_2
*I *1619:A_N I *D sky130_fd_sc_hd__and2b_2
*I *1612:Y O *D sky130_fd_sc_hd__nand4_2
*CAP
1 *1624:B 0.000127265
2 *1625:B2 0.0003551
3 *1620:A 0.000174645
4 *1619:A_N 0.000139025
5 *1612:Y 0.000225237
6 *91:36 0.000763074
7 *91:21 0.000523049
8 *91:12 0.000431958
9 *1620:A *445:23 0.000201127
10 *1625:B2 *1624:C 0.000135028
11 *1625:B2 *1625:A2 0
12 *1625:B2 *101:8 9.60875e-05
13 *1625:B2 *103:16 0
14 *1625:B2 *443:58 0.000176234
15 *91:12 *1612:A 5.45307e-05
16 *91:12 *1619:B 5.83233e-05
17 *91:12 *445:23 0.000201127
18 *1624:A *1624:B 2.59355e-05
19 *89:20 *1625:B2 3.05094e-05
*RES
1 *1612:Y *91:12 23.4429 
2 *91:12 *1619:A_N 11.4786 
3 *91:12 *91:21 0.946429 
4 *91:21 *1620:A 21.8 
5 *91:21 *91:36 4.64286 
6 *91:36 *1625:B2 24.6929 
7 *91:36 *1624:B 11.0679 
*END

*D_NET *92 0.000465241
*CONN
*I *1615:A I *D sky130_fd_sc_hd__nor2_2
*I *1613:Y O *D sky130_fd_sc_hd__a22oi_2
*CAP
1 *1615:A 0.000100622
2 *1613:Y 0.000100622
3 *1615:A *93:8 4.87953e-05
4 *1615:A *439:40 5.80217e-05
5 *1615:A *439:49 4.1331e-06
6 *1615:A *513:10 0.000153047
*RES
1 *1613:Y *1615:A 30.4929 
*END

*D_NET *93 0.00259123
*CONN
*I *1689:B1 I *D sky130_fd_sc_hd__a21o_4
*I *1688:A I *D sky130_fd_sc_hd__nand3_2
*I *1615:B I *D sky130_fd_sc_hd__nor2_2
*I *1614:X O *D sky130_fd_sc_hd__and4_2
*CAP
1 *1689:B1 0.000412626
2 *1688:A 3.67046e-05
3 *1615:B 0
4 *1614:X 0.000181121
5 *93:19 0.000715064
6 *93:8 0.000446855
7 *1688:A *1617:B 3.69047e-06
8 *1688:A *485:20 1.58163e-05
9 *1689:B1 *1687:A 5.33005e-05
10 *1689:B1 *1688:C 5.52238e-05
11 *1689:B1 *1689:A2 5.45614e-05
12 *1689:B1 *1692:B 9.25014e-06
13 *1689:B1 *166:8 0
14 *1689:B1 *438:69 1.76135e-05
15 *1689:B1 *438:78 5.72222e-05
16 *1689:B1 *439:66 9.71197e-05
17 *93:19 *1616:B 0.000318309
18 *93:19 *94:14 2.89016e-05
19 *93:19 *166:8 0
20 *93:19 *438:69 3.90513e-05
21 *93:19 *439:49 0
22 *93:19 *513:10 0
23 *1615:A *93:8 4.87953e-05
*RES
1 *1614:X *93:8 11.8 
2 *93:8 *1615:B 9.3 
3 *93:8 *93:19 10.4286 
4 *93:19 *1688:A 14.3357 
5 *93:19 *1689:B1 21.2286 
*END

*D_NET *94 0.00166868
*CONN
*I *1617:C I *D sky130_fd_sc_hd__and3_2
*I *1618:A I *D sky130_fd_sc_hd__xnor2_2
*I *1615:Y O *D sky130_fd_sc_hd__nor2_2
*CAP
1 *1617:C 0.000368213
2 *1618:A 0
3 *1615:Y 0.000276031
4 *94:14 0.000644244
5 *1617:C *1617:B 3.13209e-06
6 *1617:C *96:10 9.83388e-05
7 *94:14 *1618:B 0.000124083
8 *94:14 *438:69 0.000125736
9 *93:19 *94:14 2.89016e-05
*RES
1 *1615:Y *94:14 22.6571 
2 *94:14 *1618:A 9.3 
3 *94:14 *1617:C 24.5857 
*END

*D_NET *95 0.00043355
*CONN
*I *1618:B I *D sky130_fd_sc_hd__xnor2_2
*I *1616:Y O *D sky130_fd_sc_hd__nand2_2
*CAP
1 *1618:B 0.000142139
2 *1616:Y 0.000142139
3 *1618:B *438:69 2.51903e-05
4 *94:14 *1618:B 0.000124083
*RES
1 *1616:Y *1618:B 30.3857 
*END

*D_NET *96 0.00160723
*CONN
*I *1693:B1 I *D sky130_fd_sc_hd__a21o_4
*I *1692:A I *D sky130_fd_sc_hd__nand3_2
*I *1617:X O *D sky130_fd_sc_hd__and3_2
*CAP
1 *1693:B1 0.000312659
2 *1692:A 0
3 *1617:X 0.000239803
4 *96:10 0.000552462
5 *1693:B1 *1693:A1 7.63963e-05
6 *1693:B1 *170:14 0.000176234
7 *1693:B1 *243:14 0.00015134
8 *1617:C *96:10 9.83388e-05
*RES
1 *1617:X *96:10 17.2107 
2 *96:10 *1692:A 13.8 
3 *96:10 *1693:B1 20.1393 
*END

*D_NET *97 0.000643029
*CONN
*I *1619:B I *D sky130_fd_sc_hd__and2b_2
*I *1620:B I *D sky130_fd_sc_hd__xor2_2
*I *1618:Y O *D sky130_fd_sc_hd__xnor2_2
*CAP
1 *1619:B 0.000111671
2 *1620:B 0.000217553
3 *1618:Y 0.000105882
4 *1619:B *98:8 0.000128154
5 *1619:B *445:23 2.14474e-05
6 *91:12 *1619:B 5.83233e-05
*RES
1 *1618:Y *1620:B 11.0054 
2 *1620:B *1619:B 21.1571 
*END

*D_NET *98 0.00224913
*CONN
*I *1694:A I *D sky130_fd_sc_hd__nand3_2
*I *1766:A1 I *D sky130_fd_sc_hd__a21bo_4
*I *1695:B1 I *D sky130_fd_sc_hd__a21o_4
*I *1619:X O *D sky130_fd_sc_hd__and2b_2
*CAP
1 *1694:A 0.000158564
2 *1766:A1 0
3 *1695:B1 6.17285e-05
4 *1619:X 0.000222227
5 *98:19 0.000240217
6 *98:8 0.000365608
7 *1694:A *1694:B 6.07232e-05
8 *1694:A *1694:C 1.39841e-05
9 *1694:A *172:10 5.52238e-05
10 *1694:A *445:23 0.000128146
11 *98:8 *445:23 0.00051433
12 *98:19 *1694:B 4.46186e-06
13 *98:19 *1695:A1 6.35892e-05
14 *98:19 *171:10 6.8646e-06
15 *98:19 *445:23 0.000225314
16 *1619:B *98:8 0.000128154
*RES
1 *1619:X *98:8 20.3 
2 *98:8 *1695:B1 14.7464 
3 *98:8 *98:19 2.85714 
4 *98:19 *1766:A1 13.8 
5 *98:19 *1694:A 17.1214 
*END

*D_NET *99 0.00192868
*CONN
*I *1682:A2 I *D sky130_fd_sc_hd__o21bai_2
*I *1621:B I *D sky130_fd_sc_hd__xor2_2
*I *1620:X O *D sky130_fd_sc_hd__xor2_2
*CAP
1 *1682:A2 8.80931e-05
2 *1621:B 0.000915337
3 *1620:X 0.000827243
4 *1682:A2 *100:8 0
5 *1682:A1 *1682:A2 9.80029e-05
*RES
1 *1620:X *1621:B 22.5054 
2 *1621:B *1682:A2 20.55 
*END

*D_NET *100 0.00147474
*CONN
*I *1629:B1 I *D sky130_fd_sc_hd__o21a_2
*I *1630:A I *D sky130_fd_sc_hd__nor3_2
*I *1621:X O *D sky130_fd_sc_hd__xor2_2
*CAP
1 *1629:B1 0.000117865
2 *1630:A 6.087e-05
3 *1621:X 0.000239155
4 *100:8 0.00041789
5 *1629:B1 *1630:B 1.74352e-05
6 *1629:B1 *1630:C 0.000154027
7 *1629:B1 *1999:CLK 5.33005e-05
8 *1629:B1 *108:8 0.000318101
9 *1630:A *1999:CLK 8.86597e-05
10 *1630:A *109:14 7.43578e-06
11 *100:8 *160:10 0
12 *1682:A2 *100:8 0
*RES
1 *1621:X *100:8 17.8714 
2 *100:8 *1630:A 15.0679 
3 *100:8 *1629:B1 18.05 
*END

*D_NET *101 0.00129687
*CONN
*I *1624:C I *D sky130_fd_sc_hd__and4_2
*I *1625:A2 I *D sky130_fd_sc_hd__a22oi_2
*I *1622:X O *D sky130_fd_sc_hd__a22o_2
*CAP
1 *1624:C 9.64424e-05
2 *1625:A2 1.73466e-05
3 *1622:X 7.9709e-05
4 *101:8 0.000193498
5 *1624:C *1624:D 0.000200413
6 *1624:C *442:36 1.02936e-05
7 *1624:C *442:77 0.000198698
8 *101:8 *442:36 1.39726e-05
9 *101:8 *443:58 0.00014285
10 *1624:A *1624:C 5.33005e-05
11 *1625:B2 *1624:C 0.000135028
12 *1625:B2 *1625:A2 0
13 *1625:B2 *101:8 9.60875e-05
14 *89:20 *1624:C 5.52302e-05
15 *89:20 *1625:A2 3.99614e-06
*RES
1 *1622:X *101:8 11.4964 
2 *101:8 *1625:A2 9.72857 
3 *101:8 *1624:C 22.2107 
*END

*D_NET *102 0.00364648
*CONN
*I *1624:D I *D sky130_fd_sc_hd__and4_2
*I *1625:B1 I *D sky130_fd_sc_hd__a22oi_2
*I *1623:X O *D sky130_fd_sc_hd__a22o_2
*CAP
1 *1624:D 5.68447e-05
2 *1625:B1 0
3 *1623:X 0.000884086
4 *102:10 0.00094093
5 *1624:D *442:77 6.37408e-06
6 *1624:D *444:31 0.000227021
7 *102:10 *1627:A 0.000399835
8 *102:10 *1676:B 0.000354098
9 *102:10 *1968:B 0.000115587
10 *102:10 *442:32 5.46303e-05
11 *102:10 *442:77 2.94103e-05
12 *102:10 *443:22 7.71617e-05
13 *102:10 *444:31 0.000241935
14 *102:10 *497:81 5.81579e-05
15 *1624:C *1624:D 0.000200413
*RES
1 *1623:X *102:10 27.3536 
2 *102:10 *1625:B1 13.8 
3 *102:10 *1624:D 16.6571 
*END

*D_NET *103 0.0021794
*CONN
*I *1626:A I *D sky130_fd_sc_hd__nor2_2
*I *1630:B I *D sky130_fd_sc_hd__nor3_2
*I *1629:A1 I *D sky130_fd_sc_hd__o21a_2
*I *1624:X O *D sky130_fd_sc_hd__and4_2
*CAP
1 *1626:A 0
2 *1630:B 0.000222151
3 *1629:A1 2.23854e-05
4 *1624:X 0.000396882
5 *103:16 0.000472106
6 *103:12 0.000624452
7 *1629:A1 *1626:B 0
8 *1630:B *1630:C 0.00036192
9 *103:12 *107:12 0
10 *103:12 *497:75 0
11 *103:16 *1626:B 6.20656e-05
12 *1625:B2 *103:16 0
13 *1629:B1 *1630:B 1.74352e-05
*RES
1 *1624:X *103:12 23.2464 
2 *103:12 *103:16 3.83929 
3 *103:16 *1629:A1 9.72857 
4 *103:16 *1630:B 13.9607 
5 *103:12 *1626:A 9.3 
*END

*D_NET *104 0.000485705
*CONN
*I *1626:B I *D sky130_fd_sc_hd__nor2_2
*I *1625:Y O *D sky130_fd_sc_hd__a22oi_2
*CAP
1 *1626:B 0.000209975
2 *1625:Y 0.000209975
3 *1629:A1 *1626:B 0
4 *89:20 *1626:B 3.69047e-06
5 *103:16 *1626:B 6.20656e-05
*RES
1 *1625:Y *1626:B 22.4393 
*END

*D_NET *105 0.000620851
*CONN
*I *1661:A I *D sky130_fd_sc_hd__nor2_2
*I *1628:A I *D sky130_fd_sc_hd__and2_2
*I *1626:Y O *D sky130_fd_sc_hd__nor2_2
*CAP
1 *1661:A 0
2 *1628:A 4.63553e-05
3 *1626:Y 0.000121675
4 *105:10 0.00016803
5 *1628:A *1628:B 0.000144773
6 *1628:A *1676:B 0
7 *1628:A *106:29 3.4855e-05
8 *1628:A *155:12 0.000105163
9 *105:10 *107:12 0
10 *105:10 *497:75 0
*RES
1 *1626:Y *105:10 19.9429 
2 *105:10 *1628:A 11.4964 
3 *105:10 *1661:A 9.3 
*END

*D_NET *106 0.00273319
*CONN
*I *1628:B I *D sky130_fd_sc_hd__and2_2
*I *1661:B I *D sky130_fd_sc_hd__nor2_2
*I *1676:A I *D sky130_fd_sc_hd__nor2_2
*I *1627:X O *D sky130_fd_sc_hd__and4_2
*CAP
1 *1628:B 4.70865e-05
2 *1661:B 0
3 *1676:A 0
4 *1627:X 0.000799662
5 *106:29 0.00029362
6 *106:18 0.0010462
7 *1628:B *1662:B 0.000144773
8 *1628:B *155:12 3.48705e-05
9 *106:18 *1622:A1 5.7903e-06
10 *106:18 *418:31 0
11 *106:18 *497:75 2.11419e-05
12 *106:29 *1676:B 4.52252e-05
13 *106:29 *155:12 7.95313e-05
14 *106:29 *497:81 1.00733e-05
15 *1628:A *1628:B 0.000144773
16 *1628:A *106:29 3.4855e-05
17 *89:20 *106:29 2.55948e-05
*RES
1 *1627:X *106:18 26.9457 
2 *106:18 *1676:A 9.3 
3 *106:18 *106:29 5.08929 
4 *106:29 *1661:B 9.3 
5 *106:29 *1628:B 11.4786 
*END

*D_NET *107 0.00151571
*CONN
*I *1662:A I *D sky130_fd_sc_hd__or2_2
*I *1630:C I *D sky130_fd_sc_hd__nor3_2
*I *1629:A2 I *D sky130_fd_sc_hd__o21a_2
*I *1628:X O *D sky130_fd_sc_hd__and2_2
*CAP
1 *1662:A 0.000148547
2 *1630:C 7.0423e-05
3 *1629:A2 0
4 *1628:X 0
5 *107:12 0.000251841
6 *107:4 0.000329966
7 *1662:A *1662:B 8.76257e-05
8 *1662:A *155:12 1.03968e-05
9 *107:12 *1662:B 0.00010096
10 *107:12 *1999:CLK 0
11 *1629:B1 *1630:C 0.000154027
12 *1630:B *1630:C 0.00036192
13 *103:12 *107:12 0
14 *105:10 *107:12 0
*RES
1 *1628:X *107:4 9.3 
2 *107:4 *107:12 11.5893 
3 *107:12 *1629:A2 9.3 
4 *107:12 *1630:C 12.7107 
5 *107:4 *1662:A 11.4964 
*END

*D_NET *108 0.00684312
*CONN
*I *1643:A I *D sky130_fd_sc_hd__nor3_2
*I *1644:A1 I *D sky130_fd_sc_hd__o21a_2
*I *1682:B1_N I *D sky130_fd_sc_hd__o21bai_2
*I *1629:X O *D sky130_fd_sc_hd__o21a_2
*CAP
1 *1643:A 0
2 *1644:A1 0.000136111
3 *1682:B1_N 0.000424661
4 *1629:X 0.000727963
5 *108:27 0.00110124
6 *108:8 0.00211775
7 *1644:A1 *1644:A2 1.85455e-05
8 *1644:A1 *352:11 0.000208413
9 *1682:B1_N *160:10 0.000363837
10 *1682:B1_N *453:10 0
11 *108:8 *1999:CLK 0.000120587
12 *108:8 *109:14 5.22413e-05
13 *108:27 *1641:A 5.33334e-05
14 *108:27 *1644:A2 4.1331e-06
15 *108:27 *1663:A1 2.59355e-05
16 *108:27 *1663:A2 5.33433e-05
17 *108:27 *109:14 0.00064081
18 *108:27 *121:10 0
19 *108:27 *352:11 0.000114838
20 *108:27 *452:10 0.000357952
21 *1629:B1 *108:8 0.000318101
22 *1999:D *108:8 3.32132e-06
*RES
1 *1629:X *108:8 19.3 
2 *108:8 *1682:B1_N 26.425 
3 *108:8 *108:27 25.5536 
4 *108:27 *1644:A1 17.3179 
5 *108:27 *1643:A 13.8 
*END

*D_NET *109 0.00511341
*CONN
*I *1643:B I *D sky130_fd_sc_hd__nor3_2
*I *1644:A2 I *D sky130_fd_sc_hd__o21a_2
*I *1630:Y O *D sky130_fd_sc_hd__nor3_2
*CAP
1 *1643:B 0
2 *1644:A2 0.000182008
3 *1630:Y 0.00169889
4 *109:14 0.0018809
5 *1644:A2 *1644:B1 0.000158509
6 *1644:A2 *144:25 4.88637e-05
7 *109:14 *1641:A 0.00010096
8 *109:14 *1644:B1 5.80706e-06
9 *109:14 *1663:A1 5.33005e-05
10 *109:14 *1663:A2 9.90431e-05
11 *109:14 *1999:CLK 6.97409e-05
12 *109:14 *121:10 7.57869e-05
13 *1630:A *109:14 7.43578e-06
14 *1644:A1 *1644:A2 1.85455e-05
15 *1999:D *109:14 1.64343e-05
16 *108:8 *109:14 5.22413e-05
17 *108:27 *1644:A2 4.1331e-06
18 *108:27 *109:14 0.00064081
*RES
1 *1630:Y *109:14 41.8893 
2 *109:14 *1644:A2 18.0143 
3 *109:14 *1643:B 13.8 
*END

*D_NET *110 0.00191731
*CONN
*I *1635:A I *D sky130_fd_sc_hd__or3b_4
*I *2082:A I *D sky130_fd_sc_hd__buf_2
*I *1631:X O *D sky130_fd_sc_hd__and4_2
*CAP
1 *1635:A 2.18952e-05
2 *2082:A 0.000164841
3 *1631:X 0.000243269
4 *110:6 0.000430005
5 *1635:A *1635:B 4.27935e-05
6 *1635:A *1635:C_N 9.71197e-05
7 *1635:A *1637:B 2.14658e-05
8 *2082:A *450:64 0
9 *2082:A *468:8 4.01768e-05
10 *2082:A *496:10 8.24959e-05
11 *110:6 *1631:B 4.35336e-05
12 *110:6 *1635:B 0.000257269
13 *110:6 *1635:C_N 0.000438781
14 *110:6 *113:14 2.76091e-05
15 *110:6 *451:60 6.05161e-06
*RES
1 *1631:X *110:6 15.5857 
2 *110:6 *2082:A 21.8 
3 *110:6 *1635:A 10.2464 
*END

*D_NET *111 0.00179117
*CONN
*I *1719:A I *D sky130_fd_sc_hd__xnor2_2
*I *1636:A1 I *D sky130_fd_sc_hd__a21bo_2
*I *1632:Y O *D sky130_fd_sc_hd__inv_2
*CAP
1 *1719:A 9.77869e-05
2 *1636:A1 0.000350636
3 *1632:Y 0.000448423
4 *1636:A1 *1635:C_N 5.58941e-05
5 *1636:A1 *112:10 1.02504e-05
6 *1636:A1 *450:64 0.000148189
7 *1636:A1 *467:86 3.38136e-05
8 *1636:A1 *469:8 0.000443654
9 *1719:A *1720:A 0
10 *1719:A *1807:A1 0.000123288
11 *1719:A *188:10 2.59355e-05
12 *1719:A *189:16 5.33005e-05
*RES
1 *1632:Y *1636:A1 33.7786 
2 *1632:Y *1719:A 29.7786 
*END

*D_NET *112 0.00248514
*CONN
*I *1635:C_N I *D sky130_fd_sc_hd__or3b_4
*I *1636:A2 I *D sky130_fd_sc_hd__a21bo_2
*I *1633:X O *D sky130_fd_sc_hd__a22o_2
*CAP
1 *1635:C_N 0.000393074
2 *1636:A2 0
3 *1633:X 0.000149278
4 *112:10 0.000542352
5 *1635:C_N *1637:B 4.51641e-05
6 *1635:C_N *114:10 7.24887e-05
7 *1635:C_N *114:23 2.53134e-05
8 *1635:C_N *467:86 2.49484e-05
9 *112:10 *1633:A2 7.32173e-05
10 *112:10 *450:64 0.000194951
11 *112:10 *467:60 2.94103e-05
12 *112:10 *467:71 6.5185e-05
13 *112:10 *467:86 3.17163e-05
14 *112:10 *468:8 5.52302e-05
15 *112:10 *468:14 0.000180764
16 *1635:A *1635:C_N 9.71197e-05
17 *1636:A1 *1635:C_N 5.58941e-05
18 *1636:A1 *112:10 1.02504e-05
19 *110:6 *1635:C_N 0.000438781
*RES
1 *1633:X *112:10 18.8357 
2 *112:10 *1636:A2 13.8 
3 *112:10 *1635:C_N 22.0679 
*END

*D_NET *113 0.00132911
*CONN
*I *1635:B I *D sky130_fd_sc_hd__or3b_4
*I *1636:B1_N I *D sky130_fd_sc_hd__a21bo_2
*I *1634:Y O *D sky130_fd_sc_hd__nand2_2
*CAP
1 *1635:B 6.6531e-05
2 *1636:B1_N 0
3 *1634:Y 0.000195435
4 *113:14 0.000261966
5 *1635:B *1637:B 0.000185643
6 *113:14 *1634:A 5.52238e-05
7 *113:14 *450:64 9.6732e-05
8 *113:14 *469:8 0.000139907
9 *113:14 *496:10 0
10 *1635:A *1635:B 4.27935e-05
11 *110:6 *1635:B 0.000257269
12 *110:6 *113:14 2.76091e-05
*RES
1 *1634:Y *113:14 22.4875 
2 *113:14 *1636:B1_N 9.3 
3 *113:14 *1635:B 12.1482 
*END

*D_NET *114 0.00192484
*CONN
*I *1725:A I *D sky130_fd_sc_hd__xor2_2
*I *1724:A I *D sky130_fd_sc_hd__or3_2
*I *1637:A I *D sky130_fd_sc_hd__and2_2
*I *1635:X O *D sky130_fd_sc_hd__or3b_4
*CAP
1 *1725:A 4.98265e-05
2 *1724:A 0
3 *1637:A 0
4 *1635:X 5.10687e-05
5 *114:23 0.000308309
6 *114:10 0.000309551
7 *1725:A *1725:B 0.000177234
8 *1725:A *1797:B1 1.41029e-05
9 *1725:A *199:8 0.00019117
10 *114:10 *1637:B 0.000150539
11 *114:23 *1637:B 3.48705e-05
12 *114:23 *1723:A 0.000103267
13 *114:23 *1723:B 0.000180777
14 *114:23 *1725:B 0.000175526
15 *114:23 *199:8 8.07951e-05
16 *1635:C_N *114:10 7.24887e-05
17 *1635:C_N *114:23 2.53134e-05
*RES
1 *1635:X *114:10 11.5143 
2 *114:10 *1637:A 9.3 
3 *114:10 *114:23 10.5893 
4 *114:23 *1724:A 13.8 
5 *114:23 *1725:A 16.3536 
*END

*D_NET *115 0.00101287
*CONN
*I *1637:B I *D sky130_fd_sc_hd__and2_2
*I *1636:X O *D sky130_fd_sc_hd__a21bo_2
*CAP
1 *1637:B 0.000287592
2 *1636:X 0.000287592
3 *1637:B *1723:B 0
4 *1635:A *1637:B 2.14658e-05
5 *1635:B *1637:B 0.000185643
6 *1635:C_N *1637:B 4.51641e-05
7 *114:10 *1637:B 0.000150539
8 *114:23 *1637:B 3.48705e-05
*RES
1 *1636:X *1637:B 24.4929 
*END

*D_NET *116 0.00123737
*CONN
*I *1640:A I *D sky130_fd_sc_hd__nand2_2
*I *1641:A I *D sky130_fd_sc_hd__or2_2
*I *1637:X O *D sky130_fd_sc_hd__and2_2
*CAP
1 *1640:A 7.65162e-05
2 *1641:A 0.000125017
3 *1637:X 6.0049e-05
4 *116:8 0.000261582
5 *1640:A *1642:B 5.33005e-05
6 *1640:A *119:8 0
7 *1640:A *468:8 1.15172e-05
8 *1641:A *1640:B 0
9 *1641:A *1642:B 0.000150618
10 *1641:A *118:19 0
11 *1641:A *352:11 0.000241205
12 *116:8 *352:11 0.000103267
13 *116:8 *496:10 0
14 *108:27 *1641:A 5.33334e-05
15 *109:14 *1641:A 0.00010096
*RES
1 *1637:X *116:8 15.1393 
2 *116:8 *1641:A 17.9071 
3 *116:8 *1640:A 15.175 
*END

*D_NET *117 0.000253209
*CONN
*I *1677:A I *D sky130_fd_sc_hd__xnor2_2
*I *1638:Y O *D sky130_fd_sc_hd__nand2_2
*CAP
1 *1677:A 5.35772e-05
2 *1638:Y 5.35772e-05
3 *1677:A *1679:A3 4.1331e-06
4 *1677:A *155:12 5.80217e-05
5 *1677:A *450:19 8.39e-05
*RES
1 *1638:Y *1677:A 29.5464 
*END

*D_NET *118 0.00193619
*CONN
*I *1640:B I *D sky130_fd_sc_hd__nand2_2
*I *1641:B I *D sky130_fd_sc_hd__or2_2
*I *1664:A I *D sky130_fd_sc_hd__or2_2
*I *1639:X O *D sky130_fd_sc_hd__and4_2
*CAP
1 *1640:B 0.000142306
2 *1641:B 0
3 *1664:A 0
4 *1639:X 6.91494e-05
5 *118:19 0.00055674
6 *118:8 0.000483583
7 *1640:B *1642:B 5.48488e-05
8 *118:8 *141:14 0.000199009
9 *118:8 *450:51 5.71472e-05
10 *118:19 *1665:B 2.89114e-05
11 *118:19 *141:14 0.000203658
12 *118:19 *143:6 4.43256e-05
13 *118:19 *144:10 6.62783e-05
14 *118:19 *352:11 0
15 *118:19 *467:10 3.02355e-05
16 *1641:A *1640:B 0
17 *1641:A *118:19 0
*RES
1 *1639:X *118:8 11.4964 
2 *118:8 *1664:A 9.3 
3 *118:8 *118:19 12.3214 
4 *118:19 *1641:B 13.8 
5 *118:19 *1640:B 16.6571 
*END

*D_NET *119 0.0025513
*CONN
*I *1797:A1 I *D sky130_fd_sc_hd__o21ai_2
*I *1726:A I *D sky130_fd_sc_hd__xnor2_2
*I *1642:A I *D sky130_fd_sc_hd__nand2_2
*I *1640:Y O *D sky130_fd_sc_hd__nand2_2
*CAP
1 *1797:A1 0.000126332
2 *1726:A 6.38466e-05
3 *1642:A 0
4 *1640:Y 7.92558e-05
5 *119:19 0.000746577
6 *119:8 0.000635654
7 *1726:A *1726:B 8.76257e-05
8 *1726:A *1797:A2 5.52302e-05
9 *1726:A *188:10 3.14078e-05
10 *1726:A *189:16 0.000228558
11 *1797:A1 *1728:A2 0
12 *1797:A1 *1797:A2 0.000106552
13 *1797:A1 *1797:B1 0
14 *119:8 *1642:B 9.60939e-05
15 *119:8 *468:8 9.7659e-05
16 *119:19 *1723:A 0
17 *119:19 *1725:B 0
18 *119:19 *1727:A 0
19 *119:19 *1727:B 0
20 *119:19 *1745:A1 0
21 *119:19 *1747:A1 0
22 *119:19 *1797:B1 0
23 *119:19 *121:10 9.90367e-05
24 *119:19 *468:8 9.74698e-05
25 *1640:A *119:8 0
*RES
1 *1640:Y *119:8 11.4964 
2 *119:8 *1642:A 9.3 
3 *119:8 *119:19 14.7143 
4 *119:19 *1726:A 16.4071 
5 *119:19 *1797:A1 16.6571 
*END

*D_NET *120 0.000603752
*CONN
*I *1642:B I *D sky130_fd_sc_hd__nand2_2
*I *1641:X O *D sky130_fd_sc_hd__or2_2
*CAP
1 *1642:B 0.000118382
2 *1641:X 0.000118382
3 *1642:B *468:8 1.21258e-05
4 *1640:A *1642:B 5.33005e-05
5 *1640:B *1642:B 5.48488e-05
6 *1641:A *1642:B 0.000150618
7 *119:8 *1642:B 9.60939e-05
*RES
1 *1641:X *1642:B 30.9036 
*END

*D_NET *121 0.00140514
*CONN
*I *1643:C I *D sky130_fd_sc_hd__nor3_2
*I *1644:B1 I *D sky130_fd_sc_hd__o21a_2
*I *1642:Y O *D sky130_fd_sc_hd__nand2_2
*CAP
1 *1643:C 0
2 *1644:B1 0.00014176
3 *1642:Y 0.000235867
4 *121:10 0.000377628
5 *1644:B1 *123:10 5.26184e-05
6 *1644:B1 *144:25 0.000139907
7 *121:10 *1658:B 5.07157e-05
8 *121:10 *1748:B 0
9 *121:10 *123:10 1.41706e-05
10 *121:10 *352:11 0
11 *121:10 *468:8 5.33334e-05
12 *1644:A2 *1644:B1 0.000158509
13 *108:27 *121:10 0
14 *109:14 *1644:B1 5.80706e-06
15 *109:14 *121:10 7.57869e-05
16 *119:19 *121:10 9.90367e-05
*RES
1 *1642:Y *121:10 19.425 
2 *121:10 *1644:B1 17.7107 
3 *121:10 *1643:C 13.8 
*END

*D_NET *122 0.00304664
*CONN
*I *1746:A1 I *D sky130_fd_sc_hd__o211a_2
*I *1747:B1 I *D sky130_fd_sc_hd__a211o_4
*I *1660:A1 I *D sky130_fd_sc_hd__o21ai_2
*I *1658:A I *D sky130_fd_sc_hd__or3_4
*I *1643:Y O *D sky130_fd_sc_hd__nor3_2
*CAP
1 *1746:A1 0.000114789
2 *1747:B1 0
3 *1660:A1 0.000332851
4 *1658:A 0.00017209
5 *1643:Y 5.16368e-05
6 *122:39 0.00041894
7 *122:6 0.000252428
8 *1658:A *1658:B 5.52302e-05
9 *1658:A *1658:C 0.00014066
10 *1658:A *1659:A 0
11 *1658:A *136:8 1.52978e-05
12 *1658:A *137:6 0.00018077
13 *1658:A *137:10 0.000146474
14 *1660:A1 *1660:A2 4.72917e-05
15 *1660:A1 *1660:B1 5.33005e-05
16 *1660:A1 *467:10 0.000128496
17 *1746:A1 *1746:A2 0.000162118
18 *1746:A1 *1746:C1 1.28809e-05
19 *1746:A1 *1747:A1 0
20 *1746:A1 *1748:A_N 7.25104e-05
21 *1746:A1 *1817:B1 1.28809e-05
22 *1746:A1 *138:8 9.25014e-06
23 *122:6 *1660:A2 1.98839e-05
24 *122:6 *1660:B1 9.71197e-05
25 *122:6 *467:10 0.000182694
26 *122:39 *1748:A_N 0.000218019
27 *122:39 *137:10 0
28 *122:39 *138:8 6.82922e-05
29 *122:39 *241:8 0
30 *122:39 *467:10 8.07313e-05
*RES
1 *1643:Y *122:6 11.0679 
2 *122:6 *1658:A 22.7464 
3 *122:6 *1660:A1 10.6571 
4 *1660:A1 *122:39 20.1393 
5 *122:39 *1747:B1 13.8 
6 *122:39 *1746:A1 16.7152 
*END

*D_NET *123 0.00186019
*CONN
*I *1658:B I *D sky130_fd_sc_hd__or3_4
*I *1660:A2 I *D sky130_fd_sc_hd__o21ai_2
*I *1644:X O *D sky130_fd_sc_hd__o21a_2
*CAP
1 *1658:B 0.000108207
2 *1660:A2 0.000209066
3 *1644:X 0.000194463
4 *123:10 0.000511735
5 *1658:B *1658:C 7.2754e-05
6 *1660:A2 *1660:B1 0.000137983
7 *1660:A2 *467:10 3.48705e-05
8 *123:10 *1658:C 1.73647e-05
9 *123:10 *136:8 0.000148196
10 *123:10 *144:25 0.000185643
11 *1644:B1 *123:10 5.26184e-05
12 *1658:A *1658:B 5.52302e-05
13 *1660:A1 *1660:A2 4.72917e-05
14 *121:10 *1658:B 5.07157e-05
15 *121:10 *123:10 1.41706e-05
16 *122:6 *1660:A2 1.98839e-05
*RES
1 *1644:X *123:10 17.8179 
2 *123:10 *1660:A2 17.6393 
3 *123:10 *1658:B 16.2821 
*END

*D_NET *124 0.00425092
*CONN
*I *1646:C I *D sky130_fd_sc_hd__and3_2
*I *1730:C I *D sky130_fd_sc_hd__and3_2
*I *1752:C I *D sky130_fd_sc_hd__and3_2
*I *1731:B1 I *D sky130_fd_sc_hd__a21oi_2
*I *1645:X O *D sky130_fd_sc_hd__and2_4
*CAP
1 *1646:C 0.000362494
2 *1730:C 0
3 *1752:C 0
4 *1731:B1 0.000165992
5 *1645:X 0
6 *124:34 0.000674668
7 *124:10 0.000418063
8 *124:4 0.000564245
9 *1646:C *1649:B 0
10 *1646:C *1735:A 0
11 *1646:C *2072:A 0.000218012
12 *1646:C *234:30 0.000136951
13 *1646:C *447:69 0.000274294
14 *1646:C *447:80 4.13496e-05
15 *1646:C *465:61 0.000373325
16 *1731:B1 *1731:A1 0.000188586
17 *1731:B1 *1731:A2 0.00015234
18 *1731:B1 *209:6 5.71472e-05
19 *1731:B1 *447:43 2.14757e-05
20 *1731:B1 *465:12 1.41029e-05
21 *124:10 *1731:A2 7.05375e-05
22 *124:10 *229:22 8.5896e-05
23 *124:10 *234:30 9.90431e-05
24 *124:10 *447:37 0
25 *124:10 *447:43 0
26 *124:10 *455:10 0
27 *124:10 *466:38 0
28 *124:34 *234:30 0.000332392
29 *2049:A *1731:B1 0
30 *2049:A *124:10 0
*RES
1 *1645:X *124:4 9.3 
2 *124:4 *124:10 8.91071 
3 *124:10 *1731:B1 18.2286 
4 *124:10 *1752:C 13.8 
5 *124:4 *124:34 4.67857 
6 *124:34 *1730:C 9.3 
7 *124:34 *1646:C 27.6036 
*END

*D_NET *125 0.00120125
*CONN
*I *1735:A I *D sky130_fd_sc_hd__and2_2
*I *1647:A I *D sky130_fd_sc_hd__inv_2
*I *1650:A I *D sky130_fd_sc_hd__or3b_4
*I *1646:X O *D sky130_fd_sc_hd__and3_2
*CAP
1 *1735:A 0.000188691
2 *1647:A 0
3 *1650:A 8.12421e-05
4 *1646:X 6.74894e-05
5 *125:19 0.00025634
6 *125:6 0.00021638
7 *1650:A *1649:B 0
8 *1650:A *1651:A1 1.24469e-05
9 *1650:A *126:10 0.000117421
10 *1650:A *208:10 0.000151333
11 *1650:A *234:30 0
12 *1735:A *2086:A 5.52238e-05
13 *1735:A *501:12 2.58937e-05
14 *125:19 *126:10 2.27416e-05
15 *125:19 *501:12 6.05161e-06
16 *1646:C *1735:A 0
*RES
1 *1646:X *125:6 10.2464 
2 *125:6 *1650:A 20.8536 
3 *125:6 *125:19 1.35714 
4 *125:19 *1647:A 9.3 
5 *125:19 *1735:A 12.7286 
*END

*D_NET *126 0.00131945
*CONN
*I *1736:A I *D sky130_fd_sc_hd__xnor2_2
*I *1651:A1 I *D sky130_fd_sc_hd__a21bo_2
*I *1647:Y O *D sky130_fd_sc_hd__inv_2
*CAP
1 *1736:A 0.00023471
2 *1651:A1 0.000119001
3 *1647:Y 9.68824e-05
4 *126:10 0.000450594
5 *1651:A1 *1649:B 0
6 *1651:A1 *1650:B 7.50601e-05
7 *1651:A1 *1650:C_N 0
8 *1651:A1 *129:12 4.16383e-05
9 *1651:A1 *234:30 0
10 *1736:A *1650:C_N 5.71472e-05
11 *1736:A *234:30 9.18051e-05
12 *126:10 *234:30 0
13 *1650:A *1651:A1 1.24469e-05
14 *1650:A *126:10 0.000117421
15 *125:19 *126:10 2.27416e-05
*RES
1 *1647:Y *126:10 15.8268 
2 *126:10 *1651:A1 16.5054 
3 *126:10 *1736:A 18.4518 
*END

*D_NET *127 0.00171522
*CONN
*I *1650:C_N I *D sky130_fd_sc_hd__or3b_4
*I *1651:A2 I *D sky130_fd_sc_hd__a21bo_2
*I *1648:X O *D sky130_fd_sc_hd__a22o_2
*CAP
1 *1650:C_N 0.000244635
2 *1651:A2 0
3 *1648:X 0.000218982
4 *127:8 0.000463616
5 *1650:C_N *1651:B1_N 0.000158535
6 *1650:C_N *1652:B 2.89016e-05
7 *1650:C_N *129:12 7.2754e-05
8 *1650:C_N *215:6 2.49643e-05
9 *1650:C_N *234:30 8.69386e-05
10 *127:8 *1649:A 0.00032402
11 *127:8 *1651:B1_N 1.39841e-05
12 *127:8 *215:6 2.07382e-05
13 *1651:A1 *1650:C_N 0
14 *1736:A *1650:C_N 5.71472e-05
*RES
1 *1648:X *127:8 13.9607 
2 *127:8 *1651:A2 9.3 
3 *127:8 *1650:C_N 23.9786 
*END

*D_NET *128 0.000803785
*CONN
*I *1651:B1_N I *D sky130_fd_sc_hd__a21bo_2
*I *1650:B I *D sky130_fd_sc_hd__or3b_4
*I *1649:Y O *D sky130_fd_sc_hd__nand2_2
*CAP
1 *1651:B1_N 8.33663e-05
2 *1650:B 7.226e-05
3 *1649:Y 0
4 *128:4 0.000155626
5 *1650:B *1649:B 5.16852e-05
6 *1651:B1_N *1649:A 0
7 *1651:B1_N *215:6 0.000193268
8 *1650:C_N *1651:B1_N 0.000158535
9 *1651:A1 *1650:B 7.50601e-05
10 *127:8 *1651:B1_N 1.39841e-05
*RES
1 *1649:Y *128:4 9.3 
2 *128:4 *1650:B 20.2464 
3 *128:4 *1651:B1_N 12.1839 
*END

*D_NET *129 0.00356245
*CONN
*I *1742:B I *D sky130_fd_sc_hd__xor2_4
*I *1741:A I *D sky130_fd_sc_hd__or3_4
*I *1652:A I *D sky130_fd_sc_hd__and2_2
*I *1650:X O *D sky130_fd_sc_hd__or3b_4
*CAP
1 *1742:B 1.58566e-05
2 *1741:A 0.000128264
3 *1652:A 3.64069e-05
4 *1650:X 0.000204921
5 *129:23 0.000978034
6 *129:12 0.00107524
7 *1741:A *1741:B 7.32173e-05
8 *1741:A *1751:B1 0.000149021
9 *1741:A *240:8 0.000172207
10 *1742:B *1751:B1 5.74309e-05
11 *1742:B *1764:B 9.15842e-06
12 *1742:B *240:8 4.66056e-05
13 *129:12 *1652:B 0.000101771
14 *129:12 *234:30 5.71472e-05
15 *129:23 *1655:A 3.11088e-05
16 *129:23 *1863:A2 0.000171624
17 *129:23 *1863:B1 7.62323e-05
18 *129:23 *1864:B 1.52013e-05
19 *129:23 *131:8 4.86074e-05
20 *1650:C_N *129:12 7.2754e-05
21 *1651:A1 *129:12 4.16383e-05
*RES
1 *1650:X *129:12 22.6036 
2 *129:12 *1652:A 10.0321 
3 *129:12 *129:23 18.5893 
4 *129:23 *1741:A 17.4071 
5 *129:23 *1742:B 14.5321 
*END

*D_NET *130 0.000442462
*CONN
*I *1652:B I *D sky130_fd_sc_hd__and2_2
*I *1651:X O *D sky130_fd_sc_hd__a21bo_2
*CAP
1 *1652:B 0.000155895
2 *1651:X 0.000155895
3 *1650:C_N *1652:B 2.89016e-05
4 *129:12 *1652:B 0.000101771
*RES
1 *1651:X *1652:B 30.0821 
*END

*D_NET *131 0.00145869
*CONN
*I *1655:A I *D sky130_fd_sc_hd__nand2_2
*I *1656:A I *D sky130_fd_sc_hd__or2_2
*I *1652:X O *D sky130_fd_sc_hd__and2_2
*CAP
1 *1655:A 1.98475e-05
2 *1656:A 0.000223478
3 *1652:X 9.3255e-05
4 *131:8 0.000336581
5 *1656:A *1655:B 0.00050446
6 *1656:A *1657:A 7.38536e-05
7 *1656:A *1875:B1 6.45351e-05
8 *1656:A *134:8 5.48727e-05
9 *1656:A *352:11 8.08608e-06
10 *129:23 *1655:A 3.11088e-05
11 *129:23 *131:8 4.86074e-05
*RES
1 *1652:X *131:8 11.0857 
2 *131:8 *1656:A 25.1036 
3 *131:8 *1655:A 9.83571 
*END

*D_NET *132 0.00258782
*CONN
*I *1655:B I *D sky130_fd_sc_hd__nand2_2
*I *1656:B I *D sky130_fd_sc_hd__or2_2
*I *1653:X O *D sky130_fd_sc_hd__and4_2
*CAP
1 *1655:B 0.000286162
2 *1656:B 2.13113e-05
3 *1653:X 0.000587874
4 *132:6 0.000895347
5 *1655:B *352:11 4.88537e-05
6 *132:6 *1666:A1 1.62025e-05
7 *132:6 *1666:A2 1.66623e-05
8 *132:6 *1666:B1 2.38501e-05
9 *132:6 *455:60 0.0001871
10 *1656:A *1655:B 0.00050446
*RES
1 *1653:X *132:6 16.8179 
2 *132:6 *1656:B 9.72857 
3 *132:6 *1655:B 25.3357 
*END

*D_NET *133 0.00120721
*CONN
*I *1673:A1 I *D sky130_fd_sc_hd__a21oi_2
*I *1669:A I *D sky130_fd_sc_hd__and3_2
*I *1654:Y O *D sky130_fd_sc_hd__nand4_2
*CAP
1 *1673:A1 0
2 *1669:A 6.98864e-05
3 *1654:Y 0.000310314
4 *133:14 0.0003802
5 *1669:A *1669:B 2.90286e-05
6 *1669:A *1669:C 5.71472e-05
7 *1669:A *147:14 4.43256e-05
8 *1669:A *158:10 0.000227539
9 *133:14 *1654:A 3.93247e-05
10 *133:14 *145:12 0
11 *133:14 *352:11 4.94455e-05
*RES
1 *1654:Y *133:14 23.2643 
2 *133:14 *1669:A 11.9071 
3 *133:14 *1673:A1 9.3 
*END

*D_NET *134 0.00333315
*CONN
*I *1657:A I *D sky130_fd_sc_hd__nand2_2
*I *1751:A1 I *D sky130_fd_sc_hd__o21ai_4
*I *1743:B I *D sky130_fd_sc_hd__xnor2_2
*I *1655:Y O *D sky130_fd_sc_hd__nand2_2
*CAP
1 *1657:A 0.000362333
2 *1751:A1 0
3 *1743:B 0.000305879
4 *1655:Y 9.70647e-05
5 *134:12 0.000654954
6 *134:8 0.000808473
7 *1657:A *1657:B 0.000209992
8 *1657:A *1874:B1 8.08608e-06
9 *1657:A *1875:B1 0.00011632
10 *1657:A *337:16 8.61222e-05
11 *1657:A *352:11 0
12 *1743:B *1864:B 0.000101813
13 *134:8 *1875:B1 1.00887e-05
14 *134:8 *337:16 1.6806e-05
15 *134:12 *1873:A2 0.000214
16 *134:12 *1874:B1 7.4854e-05
17 *134:12 *228:8 0.000137639
18 *1656:A *1657:A 7.38536e-05
19 *1656:A *134:8 5.48727e-05
*RES
1 *1655:Y *134:8 16.05 
2 *134:8 *134:12 12.0179 
3 *134:12 *1743:B 23.8536 
4 *134:12 *1751:A1 9.3 
5 *134:8 *1657:A 22.6929 
*END

*D_NET *135 0.0004961
*CONN
*I *1657:B I *D sky130_fd_sc_hd__nand2_2
*I *1656:X O *D sky130_fd_sc_hd__or2_2
*CAP
1 *1657:B 0.000143054
2 *1656:X 0.000143054
3 *1657:B *352:11 0
4 *1657:A *1657:B 0.000209992
*RES
1 *1656:X *1657:B 30.7964 
*END

*D_NET *136 0.00227143
*CONN
*I *1658:C I *D sky130_fd_sc_hd__or3_4
*I *1660:B1 I *D sky130_fd_sc_hd__o21ai_2
*I *1657:Y O *D sky130_fd_sc_hd__nand2_2
*CAP
1 *1658:C 0.000128991
2 *1660:B1 3.67366e-05
3 *1657:Y 0.000468435
4 *136:8 0.000634162
5 *1658:C *1748:B 0
6 *136:8 *1671:A1 2.19684e-05
7 *136:8 *1674:B 0.000177948
8 *136:8 *137:10 4.47255e-05
9 *136:8 *148:23 7.57869e-05
10 *136:8 *150:12 0
11 *1658:A *1658:C 0.00014066
12 *1658:A *136:8 1.52978e-05
13 *1658:B *1658:C 7.2754e-05
14 *1660:A1 *1660:B1 5.33005e-05
15 *1660:A2 *1660:B1 0.000137983
16 *122:6 *1660:B1 9.71197e-05
17 *123:10 *1658:C 1.73647e-05
18 *123:10 *136:8 0.000148196
*RES
1 *1657:Y *136:8 23.3357 
2 *136:8 *1660:B1 15.1571 
3 *136:8 *1658:C 16.7107 
*END

*D_NET *137 0.00287238
*CONN
*I *1659:A I *D sky130_fd_sc_hd__inv_2
*I *1670:B1 I *D sky130_fd_sc_hd__o211a_2
*I *1671:A1 I *D sky130_fd_sc_hd__a211o_2
*I *1658:X O *D sky130_fd_sc_hd__or3_4
*CAP
1 *1659:A 0.000290963
2 *1670:B1 0.000218133
3 *1671:A1 2.00341e-05
4 *1658:X 0.000246547
5 *137:10 0.00040204
6 *137:6 0.000701383
7 *1659:A *1748:A_N 5.52238e-05
8 *1659:A *1750:B 7.17235e-05
9 *1670:B1 *1670:A1 0.000313235
10 *1670:B1 *241:8 0
11 *1671:A1 *139:10 5.58941e-05
12 *137:10 *139:10 0.000103267
13 *1658:A *1659:A 0
14 *1658:A *137:6 0.00018077
15 *1658:A *137:10 0.000146474
16 *122:39 *137:10 0
17 *136:8 *1671:A1 2.19684e-05
18 *136:8 *137:10 4.47255e-05
*RES
1 *1658:X *137:6 12.3 
2 *137:6 *137:10 8.26786 
3 *137:10 *1671:A1 14.5321 
4 *137:10 *1670:B1 26.5321 
5 *137:6 *1659:A 14.3893 
*END

*D_NET *138 0.000871619
*CONN
*I *1746:A2 I *D sky130_fd_sc_hd__o211a_2
*I *1747:C1 I *D sky130_fd_sc_hd__a211o_4
*I *1659:Y O *D sky130_fd_sc_hd__inv_2
*CAP
1 *1746:A2 5.59645e-05
2 *1747:C1 2.77489e-05
3 *1659:Y 7.40087e-05
4 *138:8 0.000157722
5 *1746:A2 *1747:A2 0.00017309
6 *1747:C1 *1747:A2 5.52238e-05
7 *138:8 *1747:A2 3.17148e-05
8 *138:8 *241:8 5.64858e-05
9 *1746:A1 *1746:A2 0.000162118
10 *1746:A1 *138:8 9.25014e-06
11 *122:39 *138:8 6.82922e-05
*RES
1 *1659:Y *138:8 15.7464 
2 *138:8 *1747:C1 14.3357 
3 *138:8 *1746:A2 16.05 
*END

*D_NET *139 0.000758657
*CONN
*I *1670:C1 I *D sky130_fd_sc_hd__o211a_2
*I *1671:A2 I *D sky130_fd_sc_hd__a211o_2
*I *1660:Y O *D sky130_fd_sc_hd__o21ai_2
*CAP
1 *1670:C1 2.34288e-05
2 *1671:A2 0
3 *1660:Y 8.86921e-05
4 *139:10 0.000112121
5 *1670:C1 *1670:A1 0.000186669
6 *1670:C1 *1670:A2 0.000188586
7 *1671:A1 *139:10 5.58941e-05
8 *137:10 *139:10 0.000103267
*RES
1 *1660:Y *139:10 20.2464 
2 *139:10 *1671:A2 9.3 
3 *139:10 *1670:C1 11.0679 
*END

*D_NET *140 0.000556144
*CONN
*I *1662:B I *D sky130_fd_sc_hd__or2_2
*I *1661:Y O *D sky130_fd_sc_hd__nor2_2
*CAP
1 *1662:B 8.48821e-05
2 *1661:Y 8.48821e-05
3 *1662:B *155:12 5.30209e-05
4 *1628:B *1662:B 0.000144773
5 *1662:A *1662:B 8.76257e-05
6 *107:12 *1662:B 0.00010096
*RES
1 *1661:Y *1662:B 21.6 
*END

*D_NET *141 0.00368452
*CONN
*I *1665:A I *D sky130_fd_sc_hd__nor2_2
*I *1667:A I *D sky130_fd_sc_hd__and2_2
*I *1662:X O *D sky130_fd_sc_hd__or2_2
*CAP
1 *1665:A 0
2 *1667:A 0.00012179
3 *1662:X 0.000877896
4 *141:14 0.000999686
5 *1667:A *1667:B 9.24299e-05
6 *141:14 *1639:A 9.31011e-05
7 *141:14 *1639:B 1.21258e-05
8 *141:14 *1665:B 0
9 *141:14 *2000:CLK 5.52238e-05
10 *141:14 *143:6 0.00014285
11 *141:14 *155:12 0.000179774
12 *141:14 *450:38 0.000269422
13 *141:14 *450:51 3.98559e-05
14 *141:14 *453:10 0.000193631
15 *141:14 *467:10 0.000187631
16 *2000:D *141:14 1.64343e-05
17 *118:8 *141:14 0.000199009
18 *118:19 *141:14 0.000203658
*RES
1 *1662:X *141:14 30.1393 
2 *141:14 *1667:A 20.8536 
3 *141:14 *1665:A 9.3 
*END

*D_NET *142 0.000369515
*CONN
*I *1664:B I *D sky130_fd_sc_hd__or2_2
*I *1663:Y O *D sky130_fd_sc_hd__a22oi_2
*CAP
1 *1664:B 9.1869e-05
2 *1663:Y 9.1869e-05
3 *1664:B *450:51 0.000150632
4 *1664:B *450:64 3.51442e-05
*RES
1 *1663:Y *1664:B 29.85 
*END

*D_NET *143 0.000868103
*CONN
*I *1665:B I *D sky130_fd_sc_hd__nor2_2
*I *1667:B I *D sky130_fd_sc_hd__and2_2
*I *1664:X O *D sky130_fd_sc_hd__or2_2
*CAP
1 *1665:B 3.57371e-05
2 *1667:B 0.000117553
3 *1664:X 5.10784e-05
4 *143:6 0.000204368
5 *1665:B *144:10 1.33343e-05
6 *1665:B *467:10 1.5424e-05
7 *1667:B *1668:A 0
8 *1667:B *144:10 0
9 *143:6 *467:10 0.000122091
10 *1667:A *1667:B 9.24299e-05
11 *118:19 *1665:B 2.89114e-05
12 *118:19 *143:6 4.43256e-05
13 *141:14 *1665:B 0
14 *141:14 *143:6 0.00014285
*RES
1 *1664:X *143:6 11.4786 
2 *143:6 *1667:B 20.8536 
3 *143:6 *1665:B 10.2643 
*END

*D_NET *144 0.00312305
*CONN
*I *1670:A1 I *D sky130_fd_sc_hd__o211a_2
*I *1671:B1 I *D sky130_fd_sc_hd__a211o_2
*I *1668:A I *D sky130_fd_sc_hd__nor2_2
*I *1665:Y O *D sky130_fd_sc_hd__nor2_2
*CAP
1 *1670:A1 0.000200525
2 *1671:B1 1.99857e-05
3 *1668:A 4.12833e-05
4 *1665:Y 0.000151274
5 *144:25 0.000655214
6 *144:10 0.000627261
7 *1668:A *352:11 0
8 *1670:A1 *1670:A2 0.000152357
9 *1671:B1 *1671:C1 1.04232e-05
10 *144:10 *352:11 0
11 *144:10 *467:10 0.000186662
12 *144:25 *1668:B 4.01768e-05
13 *144:25 *1670:A2 1.39841e-05
14 *144:25 *147:14 3.67142e-05
15 *144:25 *148:23 3.32631e-05
16 *1644:A2 *144:25 4.88637e-05
17 *1644:B1 *144:25 0.000139907
18 *1665:B *144:10 1.33343e-05
19 *1667:B *1668:A 0
20 *1667:B *144:10 0
21 *1670:B1 *1670:A1 0.000313235
22 *1670:C1 *1670:A1 0.000186669
23 *118:19 *144:10 6.62783e-05
24 *123:10 *144:25 0.000185643
*RES
1 *1665:Y *144:10 17.2107 
2 *144:10 *1668:A 14.5321 
3 *144:10 *144:25 12.8571 
4 *144:25 *1671:B1 9.72857 
5 *144:25 *1670:A1 16.0991 
*END

*D_NET *145 0.00166101
*CONN
*I *1669:B I *D sky130_fd_sc_hd__and3_2
*I *1673:A2 I *D sky130_fd_sc_hd__a21oi_2
*I *1666:X O *D sky130_fd_sc_hd__a22o_2
*CAP
1 *1669:B 0.000336143
2 *1673:A2 0
3 *1666:X 0.000333648
4 *145:12 0.000669791
5 *1669:B *1669:C 0
6 *1669:B *1674:B 0.000186669
7 *1669:B *147:14 1.98839e-05
8 *1669:B *158:10 8.07397e-06
9 *145:12 *1654:B 0
10 *145:12 *1678:A 0
11 *145:12 *158:10 7.77751e-05
12 *145:12 *352:11 0
13 *1669:A *1669:B 2.90286e-05
14 *133:14 *145:12 0
*RES
1 *1666:X *145:12 23.7286 
2 *145:12 *1673:A2 9.3 
3 *145:12 *1669:B 14.1571 
*END

*D_NET *146 0.000336381
*CONN
*I *1668:B I *D sky130_fd_sc_hd__nor2_2
*I *1667:X O *D sky130_fd_sc_hd__and2_2
*CAP
1 *1668:B 0.000148102
2 *1667:X 0.000148102
3 *144:25 *1668:B 4.01768e-05
*RES
1 *1667:X *1668:B 21.2071 
*END

*D_NET *147 0.00131326
*CONN
*I *1673:B1 I *D sky130_fd_sc_hd__a21oi_2
*I *1669:C I *D sky130_fd_sc_hd__and3_2
*I *1668:Y O *D sky130_fd_sc_hd__nor2_2
*CAP
1 *1673:B1 0
2 *1669:C 5.85547e-05
3 *1668:Y 0.000253529
4 *147:14 0.000312083
5 *1669:C *1674:B 7.32955e-05
6 *1669:C *158:10 5.92869e-05
7 *147:14 *1674:B 5.52302e-05
8 *147:14 *352:11 0.00034321
9 *1669:A *1669:C 5.71472e-05
10 *1669:A *147:14 4.43256e-05
11 *1669:B *1669:C 0
12 *1669:B *147:14 1.98839e-05
13 *144:25 *147:14 3.67142e-05
*RES
1 *1668:Y *147:14 24.5679 
2 *147:14 *1669:C 11.5143 
3 *147:14 *1673:B1 9.3 
*END

*D_NET *148 0.00194119
*CONN
*I *1670:A2 I *D sky130_fd_sc_hd__o211a_2
*I *1671:C1 I *D sky130_fd_sc_hd__a211o_2
*I *1674:A I *D sky130_fd_sc_hd__nor2_2
*I *1669:X O *D sky130_fd_sc_hd__and3_2
*CAP
1 *1670:A2 0.00020699
2 *1671:C1 1.99857e-05
3 *1674:A 0
4 *1669:X 0.00016633
5 *148:23 0.000363514
6 *148:10 0.000302868
7 *1670:A2 *150:12 9.90367e-05
8 *148:10 *1674:B 0.00029782
9 *148:10 *352:11 0
10 *148:23 *1674:B 1.02504e-05
11 *148:23 *352:11 0
12 *1670:A1 *1670:A2 0.000152357
13 *1670:C1 *1670:A2 0.000188586
14 *1671:B1 *1671:C1 1.04232e-05
15 *136:8 *148:23 7.57869e-05
16 *144:25 *1670:A2 1.39841e-05
17 *144:25 *148:23 3.32631e-05
*RES
1 *1669:X *148:10 17.1036 
2 *148:10 *1674:A 13.8 
3 *148:10 *148:23 7.39286 
4 *148:23 *1671:C1 9.72857 
5 *148:23 *1670:A2 14.3714 
*END

*D_NET *149 0.000953051
*CONN
*I *1749:B1 I *D sky130_fd_sc_hd__a21o_2
*I *1672:A_N I *D sky130_fd_sc_hd__nand2b_2
*I *1670:X O *D sky130_fd_sc_hd__o211a_2
*CAP
1 *1749:B1 7.84508e-05
2 *1672:A_N 9.28009e-06
3 *1670:X 0.000140045
4 *149:12 0.000227775
5 *1672:A_N *1681:A 2.44318e-05
6 *1672:A_N *1749:A1 5.52238e-05
7 *1749:B1 *1681:A 0.000179745
8 *1749:B1 *1681:B 0.000141866
9 *1749:B1 *1749:A1 1.54142e-05
10 *149:12 *150:12 0
11 *149:12 *159:10 9.25014e-06
12 *149:12 *241:8 7.15687e-05
*RES
1 *1670:X *149:12 20.7821 
2 *149:12 *1672:A_N 9.83571 
3 *149:12 *1749:B1 11.925 
*END

*D_NET *150 0.00110823
*CONN
*I *1749:A1 I *D sky130_fd_sc_hd__a21o_2
*I *1672:B I *D sky130_fd_sc_hd__nand2b_2
*I *1671:X O *D sky130_fd_sc_hd__a211o_2
*CAP
1 *1749:A1 0.000203056
2 *1672:B 0
3 *1671:X 0.000183328
4 *150:12 0.000386385
5 *1749:A1 *1681:A 1.02936e-05
6 *1749:A1 *1681:B 5.33005e-05
7 *1749:A1 *153:14 0.000102197
8 *1670:A2 *150:12 9.90367e-05
9 *1672:A_N *1749:A1 5.52238e-05
10 *1749:B1 *1749:A1 1.54142e-05
11 *136:8 *150:12 0
12 *149:12 *150:12 0
*RES
1 *1671:X *150:12 20.8893 
2 *150:12 *1672:B 9.3 
3 *150:12 *1749:A1 13.1393 
*END

*D_NET *151 0.00110393
*CONN
*I *1681:A I *D sky130_fd_sc_hd__xnor2_2
*I *1672:Y O *D sky130_fd_sc_hd__nand2b_2
*CAP
1 *1681:A 0.000358474
2 *1672:Y 0.000358474
3 *1681:A *1681:B 0.000117292
4 *1681:A *153:14 5.52238e-05
5 *1672:A_N *1681:A 2.44318e-05
6 *1749:A1 *1681:A 1.02936e-05
7 *1749:B1 *1681:A 0.000179745
*RES
1 *1672:Y *1681:A 25.2071 
*END

*D_NET *152 0.00122431
*CONN
*I *1674:B I *D sky130_fd_sc_hd__nor2_2
*I *1673:Y O *D sky130_fd_sc_hd__a21oi_2
*CAP
1 *1674:B 0.000160696
2 *1673:Y 0.000160696
3 *1674:B *158:10 0.000101704
4 *1669:B *1674:B 0.000186669
5 *1669:C *1674:B 7.32955e-05
6 *136:8 *1674:B 0.000177948
7 *147:14 *1674:B 5.52302e-05
8 *148:10 *1674:B 0.00029782
9 *148:23 *1674:B 1.02504e-05
*RES
1 *1673:Y *1674:B 34.0821 
*END

*D_NET *153 0.00146976
*CONN
*I *1680:B I *D sky130_fd_sc_hd__and2b_2
*I *1936:A I *D sky130_fd_sc_hd__xnor2_2
*I *1674:Y O *D sky130_fd_sc_hd__nor2_2
*CAP
1 *1680:B 0
2 *1936:A 0.000191338
3 *1674:Y 0.000371692
4 *153:14 0.00056303
5 *1936:A *1936:B 0.000126275
6 *153:14 *1936:B 1.74352e-05
7 *153:14 *159:10 4.25716e-05
8 *153:14 *241:8 0
9 *1681:A *153:14 5.52238e-05
10 *1749:A1 *153:14 0.000102197
*RES
1 *1674:Y *153:14 25.425 
2 *153:14 *1936:A 13.1571 
3 *153:14 *1680:B 9.3 
*END

*D_NET *154 0.00158174
*CONN
*I *1676:B I *D sky130_fd_sc_hd__nor2_2
*I *1675:Y O *D sky130_fd_sc_hd__a22oi_2
*CAP
1 *1676:B 0.00029639
2 *1675:Y 0.00029639
3 *1676:B *1675:B1 9.14786e-05
4 *1676:B *155:12 1.04232e-05
5 *1676:B *418:47 3.17067e-05
6 *1676:B *442:32 0
7 *1676:B *497:81 0.000446809
8 *1628:A *1676:B 0
9 *89:20 *1676:B 9.22103e-06
10 *102:10 *1676:B 0.000354098
11 *106:29 *1676:B 4.52252e-05
*RES
1 *1675:Y *1676:B 36.0464 
*END

*D_NET *155 0.00444213
*CONN
*I *1677:B I *D sky130_fd_sc_hd__xnor2_2
*I *1679:A3 I *D sky130_fd_sc_hd__a31oi_2
*I *1676:Y O *D sky130_fd_sc_hd__nor2_2
*CAP
1 *1677:B 0
2 *1679:A3 0.000223798
3 *1676:Y 0.00153657
4 *155:12 0.00176036
5 *1679:A3 *450:19 0
6 *155:12 *2000:CLK 1.92789e-05
7 *155:12 *450:19 0
8 *155:12 *450:38 0
9 *155:12 *451:10 0
10 *155:12 *453:10 0.000361914
11 *1628:A *155:12 0.000105163
12 *1628:B *155:12 3.48705e-05
13 *1662:A *155:12 1.03968e-05
14 *1662:B *155:12 5.30209e-05
15 *1676:B *155:12 1.04232e-05
16 *1677:A *1679:A3 4.1331e-06
17 *1677:A *155:12 5.80217e-05
18 *1998:D *1679:A3 0
19 *1998:D *155:12 0
20 *2000:D *155:12 4.87669e-06
21 *106:29 *155:12 7.95313e-05
22 *141:14 *155:12 0.000179774
*RES
1 *1676:Y *155:12 36.4964 
2 *155:12 *1679:A3 17.7107 
3 *155:12 *1677:B 13.8 
*END

*D_NET *156 0.00119057
*CONN
*I *1678:C I *D sky130_fd_sc_hd__and3_2
*I *1934:B1 I *D sky130_fd_sc_hd__a21oi_2
*I *1677:Y O *D sky130_fd_sc_hd__xnor2_2
*CAP
1 *1678:C 8.89493e-05
2 *1934:B1 5.18616e-05
3 *1677:Y 9.47479e-05
4 *156:8 0.000235559
5 *1678:C *1678:B 1.40415e-05
6 *1678:C *1679:B1 5.52238e-05
7 *1678:C *158:10 0.0001827
8 *1934:B1 *1935:A 7.83366e-05
9 *1934:B1 *383:10 0.00015234
10 *156:8 *1678:B 0
11 *156:8 *1935:A 1.76135e-05
12 *156:8 *383:10 0.000219193
*RES
1 *1677:Y *156:8 16.6571 
2 *156:8 *1934:B1 15.7464 
3 *156:8 *1678:C 15.9786 
*END

*D_NET *157 0.000442425
*CONN
*I *1935:A I *D sky130_fd_sc_hd__nor2_2
*I *1679:B1 I *D sky130_fd_sc_hd__a31oi_2
*I *1678:X O *D sky130_fd_sc_hd__and3_2
*CAP
1 *1935:A 7.89879e-05
2 *1679:B1 2.36895e-05
3 *1678:X 0
4 *157:4 0.000102677
5 *1935:A *1678:B 8.5896e-05
6 *1678:C *1679:B1 5.52238e-05
7 *1934:B1 *1935:A 7.83366e-05
8 *156:8 *1935:A 1.76135e-05
*RES
1 *1678:X *157:4 9.3 
2 *157:4 *1679:B1 9.83571 
3 *157:4 *1935:A 20.55 
*END

*D_NET *158 0.00404543
*CONN
*I *1936:B I *D sky130_fd_sc_hd__xnor2_2
*I *1680:A_N I *D sky130_fd_sc_hd__and2b_2
*I *1679:Y O *D sky130_fd_sc_hd__a31oi_2
*CAP
1 *1936:B 0.00020855
2 *1680:A_N 0
3 *1679:Y 0.00138616
4 *158:10 0.00159471
5 *158:10 *1678:A 5.52238e-05
6 *1669:A *158:10 0.000227539
7 *1669:B *158:10 8.07397e-06
8 *1669:C *158:10 5.92869e-05
9 *1674:B *158:10 0.000101704
10 *1678:C *158:10 0.0001827
11 *1936:A *1936:B 0.000126275
12 *145:12 *158:10 7.77751e-05
13 *153:14 *1936:B 1.74352e-05
*RES
1 *1679:Y *158:10 28.8714 
2 *158:10 *1680:A_N 9.3 
3 *158:10 *1936:B 13.1393 
*END

*D_NET *159 0.00101727
*CONN
*I *1681:B I *D sky130_fd_sc_hd__xnor2_2
*I *1749:A2 I *D sky130_fd_sc_hd__a21o_2
*I *1680:X O *D sky130_fd_sc_hd__and2b_2
*CAP
1 *1681:B 0.000176637
2 *1749:A2 0
3 *1680:X 7.57631e-05
4 *159:10 0.0002524
5 *159:10 *241:8 0.000148189
6 *1681:A *1681:B 0.000117292
7 *1749:A1 *1681:B 5.33005e-05
8 *1749:B1 *1681:B 0.000141866
9 *149:12 *159:10 9.25014e-06
10 *153:14 *159:10 4.25716e-05
*RES
1 *1680:X *159:10 20.2464 
2 *159:10 *1749:A2 9.3 
3 *159:10 *1681:B 13.8179 
*END

*D_NET *160 0.00231834
*CONN
*I *1765:A1 I *D sky130_fd_sc_hd__a21bo_2
*I *1710:A I *D sky130_fd_sc_hd__and3_4
*I *1711:B1 I *D sky130_fd_sc_hd__a21oi_2
*I *1682:Y O *D sky130_fd_sc_hd__o21bai_2
*CAP
1 *1765:A1 0.000188765
2 *1710:A 1.16062e-05
3 *1711:B1 0
4 *1682:Y 0.000632677
5 *160:12 1.16062e-05
6 *160:10 0.000821442
7 *1710:A *1710:B 5.52302e-05
8 *1710:A *1710:C 5.52302e-05
9 *1765:A1 *1709:B1 0
10 *1765:A1 *1765:A2 0.000177948
11 *1765:A1 *185:8 0
12 *1765:A1 *186:23 0
13 *160:10 *186:23 0
14 *1682:B1_N *160:10 0.000363837
15 *100:8 *160:10 0
*RES
1 *1682:Y *160:10 25.2464 
2 *160:10 *160:12 4.5 
3 *160:12 *1711:B1 9.3 
4 *160:12 *1710:A 9.83571 
5 *160:10 *1765:A1 17.6036 
*END

*D_NET *161 0.00118004
*CONN
*I *1770:A1 I *D sky130_fd_sc_hd__a21oi_2
*I *1683:Y O *D sky130_fd_sc_hd__nand2_2
*CAP
1 *1770:A1 0.000223679
2 *1683:Y 0.000223679
3 *1770:A1 *1773:A 8.08283e-05
4 *1770:A1 *244:10 0
5 *1770:A1 *249:12 0.000127439
6 *1770:A1 *439:81 7.6021e-05
7 *1770:A1 *441:46 5.33433e-05
8 *1770:A1 *495:20 0.000138015
9 *1770:A1 *495:22 8.15843e-05
10 *1770:A1 *495:26 7.8327e-05
11 *1770:A1 *497:14 9.71197e-05
*RES
1 *1683:Y *1770:A1 35.35 
*END

*D_NET *162 0.00256445
*CONN
*I *1767:A I *D sky130_fd_sc_hd__nand2_2
*I *1687:C I *D sky130_fd_sc_hd__nand4_2
*I *1686:B1 I *D sky130_fd_sc_hd__a22o_4
*I *1684:Y O *D sky130_fd_sc_hd__nand4_4
*CAP
1 *1767:A 0.000227951
2 *1687:C 0.000324888
3 *1686:B1 0
4 *1684:Y 7.63648e-05
5 *162:17 0.000642969
6 *162:8 0.000166495
7 *1687:C *1689:A2 0.000183726
8 *1687:C *474:16 9.87983e-06
9 *1767:A *2093:A 0.000162832
10 *1767:A *167:10 0.000175526
11 *1767:A *244:10 9.60875e-05
12 *1767:A *441:46 5.41797e-06
13 *1767:A *474:16 1.05898e-05
14 *1767:A *495:26 0.000126439
15 *162:8 *441:46 0.000108839
16 *162:8 *474:16 7.17603e-05
17 *162:17 *441:46 0.000108693
18 *162:17 *474:16 6.59931e-05
*RES
1 *1684:Y *162:8 16.3536 
2 *162:8 *1686:B1 13.8 
3 *162:8 *162:17 2.70536 
4 *162:17 *1687:C 19.1661 
5 *162:17 *1767:A 19.6839 
*END

*D_NET *163 0.00149608
*CONN
*I *1687:D I *D sky130_fd_sc_hd__nand4_2
*I *1686:B2 I *D sky130_fd_sc_hd__a22o_4
*I *1685:X O *D sky130_fd_sc_hd__a22o_4
*CAP
1 *1687:D 0.000108563
2 *1686:B2 0.000211122
3 *1685:X 0.000186571
4 *163:8 0.000506257
5 *1686:B2 *1686:A1 7.61932e-05
6 *1686:B2 *1686:A2 5.52302e-05
7 *1686:B2 *485:20 0.000146533
8 *1687:D *440:75 7.58664e-05
9 *163:8 *440:66 5.80217e-05
10 *163:8 *440:75 7.1724e-05
*RES
1 *1685:X *163:8 18.175 
2 *163:8 *1686:B2 18.4429 
3 *163:8 *1687:D 16.3536 
*END

*D_NET *164 0.000692511
*CONN
*I *1688:B I *D sky130_fd_sc_hd__nand3_2
*I *1689:A1 I *D sky130_fd_sc_hd__a21o_4
*I *1686:X O *D sky130_fd_sc_hd__a22o_4
*CAP
1 *1688:B 0.000116214
2 *1689:A1 9.23269e-05
3 *1686:X 0
4 *164:4 0.00020854
5 *1688:B *485:20 5.30209e-05
6 *1689:A1 *1688:C 7.83462e-05
7 *1689:A1 *439:49 9.25014e-06
8 *1689:A1 *439:66 0.000101545
9 *1689:A1 *439:81 1.59782e-05
10 *1689:A1 *485:20 1.72894e-05
*RES
1 *1686:X *164:4 9.3 
2 *164:4 *1689:A1 20.7821 
3 *164:4 *1688:B 11.4964 
*END

*D_NET *165 0.00211913
*CONN
*I *1688:C I *D sky130_fd_sc_hd__nand3_2
*I *1689:A2 I *D sky130_fd_sc_hd__a21o_4
*I *1767:B I *D sky130_fd_sc_hd__nand2_2
*I *1687:Y O *D sky130_fd_sc_hd__nand4_2
*CAP
1 *1688:C 9.65572e-05
2 *1689:A2 0.000286299
3 *1767:B 0.000172053
4 *1687:Y 0
5 *165:4 0.000361794
6 *1688:C *166:8 8.91726e-05
7 *1688:C *439:49 9.10431e-06
8 *1689:A2 *1687:A 0.000102592
9 *1689:A2 *167:10 5.52302e-05
10 *1767:B *474:16 0.000353514
11 *1767:B *485:12 0.000215147
12 *1767:B *485:14 5.80706e-06
13 *1687:C *1689:A2 0.000183726
14 *1689:A1 *1688:C 7.83462e-05
15 *1689:B1 *1688:C 5.52238e-05
16 *1689:B1 *1689:A2 5.45614e-05
*RES
1 *1687:Y *165:4 9.3 
2 *165:4 *1767:B 23.2821 
3 *165:4 *1689:A2 13.9786 
4 *1689:A2 *1688:C 30.3857 
*END

*D_NET *166 0.00248995
*CONN
*I *1776:A I *D sky130_fd_sc_hd__and2_2
*I *1691:B1 I *D sky130_fd_sc_hd__a22o_4
*I *1690:C I *D sky130_fd_sc_hd__nand4_2
*I *1688:Y O *D sky130_fd_sc_hd__nand3_2
*CAP
1 *1776:A 0.000331415
2 *1691:B1 0.000162464
3 *1690:C 0
4 *1688:Y 0.000298253
5 *166:10 0.000162464
6 *166:8 0.000629668
7 *1691:B1 *1690:B 0.000485054
8 *1691:B1 *1691:A1 0.00010082
9 *1691:B1 *1691:A2 1.33343e-05
10 *1691:B1 *169:8 0.000102197
11 *1776:A *1690:D 5.51406e-05
12 *1776:A *1692:B 0
13 *1776:A *1776:B 0
14 *1776:A *168:21 0
15 *1776:A *244:10 0
16 *1776:A *439:81 0
17 *1776:A *497:14 5.41609e-05
18 *166:8 *1690:D 5.80706e-06
19 *166:8 *1692:B 0
20 *166:8 *439:49 0
21 *166:8 *439:81 0
22 *1688:C *166:8 8.91726e-05
23 *1689:B1 *166:8 0
24 *93:19 *166:8 0
*RES
1 *1688:Y *166:8 19.0857 
2 *166:8 *166:10 4.5 
3 *166:10 *1690:C 9.3 
4 *166:10 *1691:B1 14.8 
5 *166:8 *1776:A 19.8357 
*END

*D_NET *167 0.00146608
*CONN
*I *2093:A I *D sky130_fd_sc_hd__buf_2
*I *1691:B2 I *D sky130_fd_sc_hd__a22o_4
*I *1689:X O *D sky130_fd_sc_hd__a21o_4
*CAP
1 *2093:A 0.000191151
2 *1691:B2 0
3 *1689:X 8.04026e-05
4 *167:10 0.000271554
5 *2093:A *244:10 0.00018077
6 *2093:A *441:46 0.000173083
7 *167:10 *441:46 0.000175526
8 *1689:A2 *167:10 5.52302e-05
9 *1767:A *2093:A 0.000162832
10 *1767:A *167:10 0.000175526
*RES
1 *1689:X *167:10 16.5857 
2 *167:10 *1691:B2 13.8 
3 *167:10 *2093:A 18.6393 
*END

*D_NET *168 0.00152533
*CONN
*I *1776:B I *D sky130_fd_sc_hd__and2_2
*I *1693:A2 I *D sky130_fd_sc_hd__a21o_4
*I *1692:B I *D sky130_fd_sc_hd__nand3_2
*I *1690:Y O *D sky130_fd_sc_hd__nand4_2
*CAP
1 *1776:B 0.000154147
2 *1693:A2 3.7311e-05
3 *1692:B 0.000290714
4 *1690:Y 0
5 *168:21 0.000317771
6 *168:6 0.000417027
7 *1692:B *1690:A 4.66511e-05
8 *1692:B *1692:C 4.10796e-05
9 *1692:B *438:78 0.000201127
10 *1776:B *243:14 0
11 *1776:B *244:10 0
12 *168:21 *1690:A 1.02504e-05
13 *168:21 *1693:A1 0
14 *168:21 *243:14 0
15 *1689:B1 *1692:B 9.25014e-06
16 *1776:A *1692:B 0
17 *1776:A *1776:B 0
18 *1776:A *168:21 0
19 *166:8 *1692:B 0
*RES
1 *1690:Y *168:6 13.8 
2 *168:6 *1692:B 19.5679 
3 *168:6 *168:21 2.25 
4 *168:21 *1693:A2 14.3357 
5 *168:21 *1776:B 16.6571 
*END

*D_NET *169 0.00246325
*CONN
*I *1693:A1 I *D sky130_fd_sc_hd__a21o_4
*I *1692:C I *D sky130_fd_sc_hd__nand3_2
*I *1691:X O *D sky130_fd_sc_hd__a22o_4
*CAP
1 *1693:A1 0.000243158
2 *1692:C 0.000190775
3 *1691:X 0.000292693
4 *169:8 0.000726626
5 *1692:C *170:14 0.000176234
6 *1693:A1 *170:14 9.25014e-06
7 *1693:A1 *243:14 0.000128154
8 *169:8 *1690:B 3.30352e-05
9 *169:8 *1691:A1 0.000443648
10 *1691:B1 *169:8 0.000102197
11 *1692:B *1692:C 4.10796e-05
12 *1693:B1 *1693:A1 7.63963e-05
13 *168:21 *1693:A1 0
*RES
1 *1691:X *169:8 20.4964 
2 *169:8 *1692:C 17.8357 
3 *169:8 *1693:A1 18.6571 
*END

*D_NET *170 0.0018057
*CONN
*I *1695:A2 I *D sky130_fd_sc_hd__a21o_4
*I *1694:B I *D sky130_fd_sc_hd__nand3_2
*I *1766:B1_N I *D sky130_fd_sc_hd__a21bo_4
*I *1692:Y O *D sky130_fd_sc_hd__nand3_2
*CAP
1 *1695:A2 9.25397e-05
2 *1694:B 0.000328996
3 *1766:B1_N 0
4 *1692:Y 0
5 *170:14 0.000433275
6 *170:4 0.000196819
7 *1694:B *1766:A2 5.52302e-05
8 *1694:B *171:10 0.000177948
9 *1694:B *243:14 5.49544e-05
10 *1694:B *445:23 1.91512e-05
11 *170:14 *243:14 1.98839e-05
12 *1692:C *170:14 0.000176234
13 *1693:A1 *170:14 9.25014e-06
14 *1693:B1 *170:14 0.000176234
15 *1694:A *1694:B 6.07232e-05
16 *98:19 *1694:B 4.46186e-06
*RES
1 *1692:Y *170:4 9.3 
2 *170:4 *170:14 12.2143 
3 *170:14 *1766:B1_N 9.3 
4 *170:14 *1694:B 24.4964 
5 *170:4 *1695:A2 10.6571 
*END

*D_NET *171 0.0018641
*CONN
*I *1694:C I *D sky130_fd_sc_hd__nand3_2
*I *1766:A2 I *D sky130_fd_sc_hd__a21bo_4
*I *1695:A1 I *D sky130_fd_sc_hd__a21o_4
*I *1693:X O *D sky130_fd_sc_hd__a21o_4
*CAP
1 *1694:C 0.000152027
2 *1766:A2 0.000112231
3 *1695:A1 0.000211568
4 *1693:X 0.000122522
5 *171:10 0.000448379
6 *171:6 0.000399128
7 *1694:C *172:10 0.000100625
8 *171:10 *243:14 0
9 *171:10 *445:23 0
10 *1694:A *1694:C 1.39841e-05
11 *1694:B *1766:A2 5.52302e-05
12 *1694:B *171:10 0.000177948
13 *98:19 *1695:A1 6.35892e-05
14 *98:19 *171:10 6.8646e-06
*RES
1 *1693:X *171:6 11.0679 
2 *171:6 *171:10 7.35714 
3 *171:10 *1695:A1 17.8357 
4 *171:10 *1766:A2 15.5679 
5 *171:6 *1694:C 12.3179 
*END

*D_NET *172 0.0032046
*CONN
*I *1708:A I *D sky130_fd_sc_hd__nand3_2
*I *1709:A1 I *D sky130_fd_sc_hd__a21o_4
*I *1694:Y O *D sky130_fd_sc_hd__nand3_2
*CAP
1 *1708:A 0
2 *1709:A1 0.000196092
3 *1694:Y 0.00123021
4 *172:10 0.0014263
5 *1709:A1 *1709:B1 0
6 *1709:A1 *2092:A 0
7 *172:10 *1607:A 5.33005e-05
8 *172:10 *1709:B1 0
9 *172:10 *184:12 0
10 *172:10 *185:8 0
11 *1694:A *172:10 5.52238e-05
12 *1694:C *172:10 0.000100625
13 *86:10 *172:10 0.00014285
*RES
1 *1694:Y *172:10 33.5321 
2 *172:10 *1709:A1 17.1929 
3 *172:10 *1708:A 13.8 
*END

*D_NET *173 0.0035858
*CONN
*I *1709:A2 I *D sky130_fd_sc_hd__a21o_4
*I *2092:A I *D sky130_fd_sc_hd__buf_2
*I *1695:X O *D sky130_fd_sc_hd__a21o_4
*CAP
1 *1709:A2 0.000114769
2 *2092:A 0.000210932
3 *1695:X 0.00124915
4 *173:8 0.00157485
5 *173:8 *1605:D 0.000183713
6 *173:8 *497:58 1.98839e-05
7 *173:8 *497:71 1.98839e-05
8 *1608:A *173:8 2.89016e-05
9 *1611:A *2092:A 0
10 *1706:B1 *2092:A 0
11 *1709:A1 *2092:A 0
12 *84:10 *173:8 0.00018372
*RES
1 *1695:X *173:8 24.2286 
2 *173:8 *2092:A 21.7643 
3 *173:8 *1709:A2 10.9786 
*END

*D_NET *174 0.000871819
*CONN
*I *1705:A I *D sky130_fd_sc_hd__xnor2_4
*I *1788:A1 I *D sky130_fd_sc_hd__o21ba_2
*I *1696:Y O *D sky130_fd_sc_hd__nand2_2
*CAP
1 *1705:A 7.72601e-05
2 *1788:A1 0.000271921
3 *1696:Y 8.07586e-05
4 *174:6 0.000429939
5 *1788:A1 *1607:B 0
6 *1788:A1 *1696:A 0
7 *1788:A1 *1705:B 0
8 *1788:A1 *1821:A1 0
9 *1788:A1 *257:10 1.19402e-05
10 *1788:A1 *443:112 0
*RES
1 *1696:Y *174:6 10.6571 
2 *174:6 *1788:A1 23.1036 
3 *174:6 *1705:A 10.6571 
*END

*D_NET *175 0.00168936
*CONN
*I *1783:A1 I *D sky130_fd_sc_hd__a21o_2
*I *1697:Y O *D sky130_fd_sc_hd__nand2_2
*CAP
1 *1783:A1 0.000343989
2 *1697:Y 0.000343989
3 *1783:A1 *1781:C 0.000344917
4 *1783:A1 *1826:A2 0
5 *1783:A1 *445:51 5.59013e-05
6 *1783:A1 *506:10 0.000184626
7 *1783:A1 *506:12 5.99125e-05
8 *1783:A1 *512:68 0.000356028
*RES
1 *1697:Y *1783:A1 36.6 
*END

*D_NET *176 0.0014367
*CONN
*I *1700:B1 I *D sky130_fd_sc_hd__a22o_2
*I *1701:C I *D sky130_fd_sc_hd__nand4_2
*I *1780:A I *D sky130_fd_sc_hd__nand2_2
*I *1698:Y O *D sky130_fd_sc_hd__nand4_2
*CAP
1 *1700:B1 0.000137618
2 *1701:C 0.000120085
3 *1780:A 0
4 *1698:Y 0.000127031
5 *176:10 0.000120085
6 *176:8 0.000264649
7 *1700:B1 *1700:A1 5.52302e-05
8 *1700:B1 *1700:B2 9.80173e-05
9 *1700:B1 *1784:A 1.17968e-05
10 *1700:B1 *177:10 0
11 *1700:B1 *256:14 2.14757e-05
12 *1700:B1 *443:126 4.15914e-05
13 *1700:B1 *445:51 5.38886e-05
14 *1701:C *1780:B 8.19593e-05
15 *1701:C *257:10 3.48705e-05
16 *1701:C *443:126 0.000196066
17 *176:8 *1607:B 0
18 *176:8 *177:10 0
19 *176:8 *445:23 2.8266e-06
20 *176:8 *445:51 6.95112e-05
*RES
1 *1698:Y *176:8 16.3536 
2 *176:8 *176:10 4.5 
3 *176:10 *1780:A 9.3 
4 *176:10 *1701:C 12.7464 
5 *176:8 *1700:B1 17.1036 
*END

*D_NET *177 0.00223008
*CONN
*I *1700:B2 I *D sky130_fd_sc_hd__a22o_2
*I *1701:D I *D sky130_fd_sc_hd__nand4_2
*I *1699:X O *D sky130_fd_sc_hd__a22o_2
*CAP
1 *1700:B2 0.000240784
2 *1701:D 0
3 *1699:X 0.000536216
4 *177:10 0.000777
5 *1700:B2 *1607:B 0
6 *1700:B2 *1700:A1 2.14658e-05
7 *1700:B2 *1784:A 3.69697e-05
8 *1700:B2 *256:14 0.000122413
9 *1700:B2 *443:126 3.69697e-05
10 *1700:B2 *512:68 0
11 *1700:B2 *512:70 0
12 *177:10 *1604:B 1.92116e-05
13 *177:10 *1607:B 0
14 *177:10 *1698:A 3.05446e-05
15 *177:10 *497:25 0.000310492
16 *1700:B1 *1700:B2 9.80173e-05
17 *1700:B1 *177:10 0
18 *176:8 *177:10 0
*RES
1 *1699:X *177:10 21.2107 
2 *177:10 *1701:D 13.8 
3 *177:10 *1700:B2 18.1393 
*END

*D_NET *178 0.00153127
*CONN
*I *1702:B I *D sky130_fd_sc_hd__and3_2
*I *1703:A1 I *D sky130_fd_sc_hd__a21oi_2
*I *1700:X O *D sky130_fd_sc_hd__a22o_2
*CAP
1 *1702:B 0.000247166
2 *1703:A1 0
3 *1700:X 0.000111502
4 *178:8 0.000358668
5 *1702:B *1696:B 7.38652e-05
6 *1702:B *256:14 1.39726e-05
7 *1702:B *257:10 0.000139907
8 *1702:B *443:112 5.41794e-05
9 *178:8 *1700:A2 5.33334e-05
10 *178:8 *256:14 0.000226513
11 *1703:B1 *1702:B 0.000148903
12 *83:12 *1702:B 0.00010326
*RES
1 *1700:X *178:8 12.2107 
2 *178:8 *1703:A1 9.3 
3 *178:8 *1702:B 23.3536 
*END

*D_NET *179 0.00146545
*CONN
*I *1703:A2 I *D sky130_fd_sc_hd__a21oi_2
*I *1702:C I *D sky130_fd_sc_hd__and3_2
*I *1780:B I *D sky130_fd_sc_hd__nand2_2
*I *1701:Y O *D sky130_fd_sc_hd__nand4_2
*CAP
1 *1703:A2 3.75458e-05
2 *1702:C 0.000204804
3 *1780:B 4.95476e-05
4 *1701:Y 7.10155e-05
5 *179:22 0.000263817
6 *1702:C *257:10 2.47833e-05
7 *1702:C *443:126 6.71327e-05
8 *1703:A2 *1696:B 0.000128154
9 *1703:A2 *512:68 9.25014e-06
10 *1703:A2 *512:70 0.000117903
11 *1780:B *257:10 0.00014183
12 *179:22 *1607:B 3.51442e-05
13 *179:22 *1696:B 8.07879e-05
14 *179:22 *512:70 5.7616e-05
15 *1701:C *1780:B 8.19593e-05
16 *83:12 *1702:C 9.41642e-05
*RES
1 *1701:Y *1780:B 20.3857 
2 *1701:Y *179:22 14.8357 
3 *179:22 *1702:C 16.3893 
4 *179:22 *1703:A2 15.4429 
*END

*D_NET *180 0.0011079
*CONN
*I *1704:A I *D sky130_fd_sc_hd__nor2_4
*I *1788:B1_N I *D sky130_fd_sc_hd__o21ba_2
*I *1702:X O *D sky130_fd_sc_hd__and3_2
*CAP
1 *1704:A 0.000146234
2 *1788:B1_N 1.20576e-05
3 *1702:X 0.000180121
4 *180:8 0.000338412
5 *1704:A *1704:B 0.000160197
6 *1704:A *265:10 9.90431e-05
7 *1788:B1_N *1704:B 1.04232e-05
8 *180:8 *1704:B 0.000106193
9 *180:8 *265:10 5.52238e-05
10 *180:8 *443:112 0
*RES
1 *1702:X *180:8 12.7286 
2 *180:8 *1788:B1_N 9.72857 
3 *180:8 *1704:A 12.7286 
*END

*D_NET *181 0.00138759
*CONN
*I *1788:A2 I *D sky130_fd_sc_hd__o21ba_2
*I *1704:B I *D sky130_fd_sc_hd__nor2_4
*I *1703:Y O *D sky130_fd_sc_hd__a21oi_2
*CAP
1 *1788:A2 0
2 *1704:B 0.000175838
3 *1703:Y 0.000349777
4 *181:12 0.000525615
5 *181:12 *1821:A1 0
6 *181:12 *256:14 2.76766e-05
7 *181:12 *257:10 0
8 *1703:B1 *181:12 3.18676e-05
9 *1704:A *1704:B 0.000160197
10 *1788:B1_N *1704:B 1.04232e-05
11 *180:8 *1704:B 0.000106193
*RES
1 *1703:Y *181:12 22.9429 
2 *181:12 *1704:B 13.6929 
3 *181:12 *1788:A2 9.3 
*END

*D_NET *182 0.000610527
*CONN
*I *1705:B I *D sky130_fd_sc_hd__xnor2_4
*I *1704:Y O *D sky130_fd_sc_hd__nor2_4
*CAP
1 *1705:B 0.00026845
2 *1704:Y 0.00026845
3 *1705:B *1821:A1 7.36267e-05
4 *1705:B *1821:A2 0
5 *1705:B *184:23 0
6 *1788:A1 *1705:B 0
*RES
1 *1704:Y *1705:B 32.8143 
*END

*D_NET *183 0.00170922
*CONN
*I *1821:A2 I *D sky130_fd_sc_hd__a21oi_2
*I *1792:A I *D sky130_fd_sc_hd__nand2_2
*I *1707:B I *D sky130_fd_sc_hd__xor2_2
*I *1705:Y O *D sky130_fd_sc_hd__xnor2_4
*CAP
1 *1821:A2 0.0004431
2 *1792:A 0
3 *1707:B 9.90498e-05
4 *1705:Y 0
5 *183:15 0.000542947
6 *183:6 0.000198897
7 *1707:B *184:12 5.80706e-06
8 *1707:B *184:23 0.000112106
9 *1707:B *242:10 0
10 *1821:A2 *1793:A 9.25014e-06
11 *1821:A2 *1793:B 0
12 *1821:A2 *1821:A1 0
13 *1821:A2 *242:10 0
14 *1821:A2 *256:14 0.000154529
15 *1821:A2 *265:10 0
16 *1821:A2 *297:10 3.95455e-05
17 *183:15 *184:23 0.000103993
18 *183:15 *242:10 0
19 *1705:B *1821:A2 0
*RES
1 *1705:Y *183:6 13.8 
2 *183:6 *1707:B 7.05357 
3 *183:6 *183:15 2.55357 
4 *183:15 *1792:A 13.8 
5 *183:15 *1821:A2 22.3982 
*END

*D_NET *184 0.00248517
*CONN
*I *1792:B I *D sky130_fd_sc_hd__nand2_2
*I *1821:A1 I *D sky130_fd_sc_hd__a21oi_2
*I *1707:A I *D sky130_fd_sc_hd__xor2_2
*I *1706:X O *D sky130_fd_sc_hd__a32o_2
*CAP
1 *1792:B 0
2 *1821:A1 0.000466944
3 *1707:A 0
4 *1706:X 0.000376422
5 *184:23 0.000666293
6 *184:12 0.000575771
7 *1821:A1 *257:10 0
8 *1821:A1 *265:10 6.74911e-05
9 *1705:B *1821:A1 7.36267e-05
10 *1705:B *184:23 0
11 *1706:B1 *184:12 3.67142e-05
12 *1707:B *184:12 5.80706e-06
13 *1707:B *184:23 0.000112106
14 *1788:A1 *1821:A1 0
15 *1821:A2 *1821:A1 0
16 *172:10 *184:12 0
17 *181:12 *1821:A1 0
18 *183:15 *184:23 0.000103993
*RES
1 *1706:X *184:12 18.8714 
2 *184:12 *1707:A 13.8 
3 *184:12 *184:23 9.48214 
4 *184:23 *1821:A1 26.6929 
5 *184:23 *1792:B 9.3 
*END

*D_NET *185 0.000832748
*CONN
*I *1708:C I *D sky130_fd_sc_hd__nand3_2
*I *1709:B1 I *D sky130_fd_sc_hd__a21o_4
*I *1707:X O *D sky130_fd_sc_hd__xor2_2
*CAP
1 *1708:C 0
2 *1709:B1 0.000274762
3 *1707:X 7.66779e-05
4 *185:8 0.00035144
5 *1709:B1 *186:23 0
6 *185:8 *242:10 0.000129868
7 *1709:A1 *1709:B1 0
8 *1765:A1 *1709:B1 0
9 *1765:A1 *185:8 0
10 *172:10 *1709:B1 0
11 *172:10 *185:8 0
*RES
1 *1707:X *185:8 15.7464 
2 *185:8 *1709:B1 18.425 
3 *185:8 *1708:C 13.8 
*END

*D_NET *186 0.00136354
*CONN
*I *1711:A1 I *D sky130_fd_sc_hd__a21oi_2
*I *1710:B I *D sky130_fd_sc_hd__and3_4
*I *1765:B1_N I *D sky130_fd_sc_hd__a21bo_2
*I *1708:Y O *D sky130_fd_sc_hd__nand3_2
*CAP
1 *1711:A1 0
2 *1710:B 0.000112497
3 *1765:B1_N 2.64659e-05
4 *1708:Y 0.000135152
5 *186:23 0.000295416
6 *186:6 0.000344537
7 *1710:B *1710:C 6.42778e-05
8 *1710:B *187:13 8.07313e-05
9 *1710:B *189:16 0.000185643
10 *186:23 *1765:A2 6.35892e-05
11 *1709:B1 *186:23 0
12 *1710:A *1710:B 5.52302e-05
13 *1765:A1 *186:23 0
14 *160:10 *186:23 0
*RES
1 *1708:Y *186:6 11.4786 
2 *186:6 *1765:B1_N 9.85804 
3 *186:6 *186:23 12.5 
4 *186:23 *1710:B 12.7286 
5 *186:23 *1711:A1 9.3 
*END

*D_NET *187 0.00114015
*CONN
*I *1710:C I *D sky130_fd_sc_hd__and3_4
*I *1765:A2 I *D sky130_fd_sc_hd__a21bo_2
*I *1711:A2 I *D sky130_fd_sc_hd__a21oi_2
*I *1709:X O *D sky130_fd_sc_hd__a21o_4
*CAP
1 *1710:C 0.000118805
2 *1765:A2 5.93395e-05
3 *1711:A2 0
4 *1709:X 5.63185e-05
5 *187:13 0.000284152
6 *187:6 0.000162326
7 *1710:C *188:10 0
8 *1710:C *189:16 1.74352e-05
9 *1710:A *1710:C 5.52302e-05
10 *1710:B *1710:C 6.42778e-05
11 *1710:B *187:13 8.07313e-05
12 *1765:A1 *1765:A2 0.000177948
13 *186:23 *1765:A2 6.35892e-05
*RES
1 *1709:X *187:6 10.2464 
2 *187:6 *1711:A2 9.3 
3 *187:6 *187:13 2.17857 
4 *187:13 *1765:A2 20.55 
5 *187:13 *1710:C 11.9071 
*END

*D_NET *188 0.00499274
*CONN
*I *1728:A1 I *D sky130_fd_sc_hd__o21a_4
*I *1727:A I *D sky130_fd_sc_hd__nor3_2
*I *1710:X O *D sky130_fd_sc_hd__and3_4
*CAP
1 *1728:A1 0.000195491
2 *1727:A 0.000121981
3 *1710:X 0.00134729
4 *188:10 0.00166476
5 *1727:A *1727:B 0.000154845
6 *1727:A *1727:C 0
7 *1727:A *1728:A2 0.000103974
8 *1727:A *1728:B1 1.76039e-05
9 *1727:A *1745:A1 5.59013e-05
10 *1727:A *469:8 2.89016e-05
11 *1728:A1 *1728:A2 8.74574e-05
12 *1728:A1 *1728:B1 0.000138373
13 *188:10 *1714:A1 5.52302e-05
14 *188:10 *1714:B1 1.21258e-05
15 *188:10 *1720:A 0.000225616
16 *188:10 *1726:B 5.62995e-05
17 *188:10 *1797:A2 7.3237e-05
18 *188:10 *189:16 0.000541084
19 *188:10 *197:8 5.52238e-05
20 *1710:C *188:10 0
21 *1719:A *188:10 2.59355e-05
22 *1726:A *188:10 3.14078e-05
23 *119:19 *1727:A 0
*RES
1 *1710:X *188:10 37.3536 
2 *188:10 *1727:A 17.1929 
3 *188:10 *1728:A1 18.175 
*END

*D_NET *189 0.00653467
*CONN
*I *1728:A2 I *D sky130_fd_sc_hd__o21a_4
*I *1727:B I *D sky130_fd_sc_hd__nor3_2
*I *1711:Y O *D sky130_fd_sc_hd__a21oi_2
*CAP
1 *1728:A2 0.000168843
2 *1727:B 0.000185394
3 *1711:Y 0.0015284
4 *189:16 0.00188264
5 *1727:B *1745:A1 5.52302e-05
6 *1727:B *469:8 6.79057e-05
7 *1728:A2 *1797:A2 0
8 *189:16 *1714:A1 1.55885e-05
9 *189:16 *1714:B1 5.33005e-05
10 *189:16 *1720:A 0.000102188
11 *189:16 *1797:A2 7.25614e-05
12 *189:16 *197:8 2.89016e-05
13 *189:16 *198:8 0.00100142
14 *1710:B *189:16 0.000185643
15 *1710:C *189:16 1.74352e-05
16 *1719:A *189:16 5.33005e-05
17 *1726:A *189:16 0.000228558
18 *1727:A *1727:B 0.000154845
19 *1727:A *1728:A2 0.000103974
20 *1728:A1 *1728:A2 8.74574e-05
21 *1797:A1 *1728:A2 0
22 *119:19 *1727:B 0
23 *188:10 *189:16 0.000541084
*RES
1 *1711:Y *189:16 41.7286 
2 *189:16 *1727:B 17.7464 
3 *189:16 *1728:A2 17.2643 
*END

*D_NET *190 0.00130545
*CONN
*I *1800:A1 I *D sky130_fd_sc_hd__a21oi_2
*I *1712:Y O *D sky130_fd_sc_hd__nand2_2
*CAP
1 *1800:A1 0.000230374
2 *1712:Y 0.000230374
3 *1800:A1 *1712:A 5.52238e-05
4 *1800:A1 *1712:B 3.8274e-05
5 *1800:A1 *1798:A 0.000180764
6 *1800:A1 *1798:D 9.41642e-05
7 *1800:A1 *1800:A2 3.34295e-05
8 *1800:A1 *1802:C 4.46186e-06
9 *1800:A1 *1846:B1 1.24368e-05
10 *1800:A1 *1848:B1 6.0038e-05
11 *1800:A1 *273:12 2.95726e-05
12 *1800:A1 *275:10 6.05161e-06
13 *1800:A1 *277:10 9.95193e-05
14 *1800:A1 *383:16 0
15 *1800:A1 *452:51 1.52978e-05
16 *1800:A1 *452:62 5.84267e-05
17 *1800:A1 *469:32 2.95726e-05
18 *1800:A1 *470:37 0.00012747
*RES
1 *1712:Y *1800:A1 34.5107 
*END

*D_NET *191 0.00359997
*CONN
*I *1804:A1 I *D sky130_fd_sc_hd__o21a_2
*I *1805:A I *D sky130_fd_sc_hd__nor3_2
*I *1715:A I *D sky130_fd_sc_hd__nor2_2
*I *1713:X O *D sky130_fd_sc_hd__and4_2
*CAP
1 *1804:A1 7.91406e-05
2 *1805:A 0.000203193
3 *1715:A 0
4 *1713:X 0.000160018
5 *191:23 0.000626848
6 *191:10 0.000504533
7 *1804:A1 *195:10 7.24887e-05
8 *1805:A *1717:C 3.17163e-05
9 *1805:A *1804:B1 0
10 *1805:A *279:10 0.000128154
11 *1805:A *279:19 1.02504e-05
12 *1805:A *280:6 0.000144773
13 *191:10 *1713:A 8.50152e-05
14 *191:10 *1714:B2 6.42242e-05
15 *191:10 *1715:B 8.39e-05
16 *191:10 *451:60 2.68539e-05
17 *191:10 *452:36 0.000193118
18 *191:10 *452:51 0.000202128
19 *191:23 *1715:B 5.80706e-06
20 *191:23 *1717:A 0.000111501
21 *191:23 *1717:B 2.59355e-05
22 *191:23 *1802:A 7.48091e-05
23 *191:23 *1802:B 9.3111e-05
24 *191:23 *279:10 4.70078e-05
25 *191:23 *451:60 5.89074e-05
26 *191:23 *452:51 0.000363705
27 *191:23 *469:32 0.000202835
*RES
1 *1713:X *191:10 19.3179 
2 *191:10 *1715:A 13.8 
3 *191:10 *191:23 14.6429 
4 *191:23 *1805:A 22.6214 
5 *191:23 *1804:A1 11.0857 
*END

*D_NET *192 0.000330365
*CONN
*I *1715:B I *D sky130_fd_sc_hd__nor2_2
*I *1714:Y O *D sky130_fd_sc_hd__a22oi_2
*CAP
1 *1715:B 4.2948e-05
2 *1714:Y 4.2948e-05
3 *1715:B *451:60 0.000154762
4 *191:10 *1715:B 8.39e-05
5 *191:23 *1715:B 5.80706e-06
*RES
1 *1714:Y *1715:B 29.5464 
*END

*D_NET *193 0.00131738
*CONN
*I *1717:C I *D sky130_fd_sc_hd__and3_2
*I *1718:A I *D sky130_fd_sc_hd__xnor2_2
*I *1715:Y O *D sky130_fd_sc_hd__nor2_2
*CAP
1 *1717:C 0.000295557
2 *1718:A 0
3 *1715:Y 0.000246717
4 *193:8 0.000542274
5 *1717:C *1717:B 0.00020112
6 *1717:C *1720:B 0
7 *1717:C *470:39 0
8 *1805:A *1717:C 3.17163e-05
*RES
1 *1715:Y *193:8 12.7286 
2 *193:8 *1718:A 9.3 
3 *193:8 *1717:C 24.1214 
*END

*D_NET *194 0.00050926
*CONN
*I *1718:B I *D sky130_fd_sc_hd__xnor2_2
*I *1716:Y O *D sky130_fd_sc_hd__nand2_2
*CAP
1 *1718:B 7.893e-05
2 *1716:Y 7.893e-05
3 *1718:B *1717:B 5.33005e-05
4 *1718:B *1720:B 0.000148189
5 *1718:B *383:16 0.000149911
*RES
1 *1716:Y *1718:B 30.0821 
*END

*D_NET *195 0.000780416
*CONN
*I *1805:B I *D sky130_fd_sc_hd__nor3_2
*I *1804:A2 I *D sky130_fd_sc_hd__o21a_2
*I *1717:X O *D sky130_fd_sc_hd__and3_2
*CAP
1 *1805:B 0.000169478
2 *1804:A2 0
3 *1717:X 9.55115e-05
4 *195:10 0.000264989
5 *1805:B *1804:B1 0.000177948
6 *1805:B *1811:A 0
7 *1805:B *281:10 0
8 *1805:B *281:19 0
9 *1804:A1 *195:10 7.24887e-05
*RES
1 *1717:X *195:10 11.5143 
2 *195:10 *1804:A2 9.3 
3 *195:10 *1805:B 21.9071 
*END

*D_NET *196 0.000634421
*CONN
*I *1807:A2 I *D sky130_fd_sc_hd__a21oi_2
*I *1719:B I *D sky130_fd_sc_hd__xnor2_2
*I *1718:Y O *D sky130_fd_sc_hd__xnor2_2
*CAP
1 *1807:A2 0
2 *1719:B 0.000100471
3 *1718:Y 0.00012196
4 *196:6 0.000222431
5 *1719:B *1721:A 0
6 *1719:B *1722:A 0
7 *1719:B *1807:A1 9.24395e-05
8 *196:6 *1807:A1 9.71197e-05
*RES
1 *1718:Y *196:6 11.4786 
2 *196:6 *1719:B 20.55 
3 *196:6 *1807:A2 9.3 
*END

*D_NET *197 0.00103328
*CONN
*I *1721:A I *D sky130_fd_sc_hd__nor2_2
*I *1722:A I *D sky130_fd_sc_hd__and2_2
*I *1719:Y O *D sky130_fd_sc_hd__xnor2_2
*CAP
1 *1721:A 0.000105239
2 *1722:A 0.000164026
3 *1719:Y 1.40568e-05
4 *197:8 0.000283321
5 *1721:A *1807:B1 0.000173804
6 *1721:A *352:11 1.31516e-05
7 *1722:A *1723:B 5.7616e-05
8 *1722:A *1807:A1 0
9 *1722:A *1807:B1 0.000137939
10 *1722:A *496:10 0
11 *1719:B *1721:A 0
12 *1719:B *1722:A 0
13 *188:10 *197:8 5.52238e-05
14 *189:16 *197:8 2.89016e-05
*RES
1 *1719:Y *197:8 14.3357 
2 *197:8 *1722:A 16.8893 
3 *197:8 *1721:A 16.3536 
*END

*D_NET *198 0.00360611
*CONN
*I *1721:B I *D sky130_fd_sc_hd__nor2_2
*I *1722:B I *D sky130_fd_sc_hd__and2_2
*I *1720:X O *D sky130_fd_sc_hd__and2_2
*CAP
1 *1721:B 7.39681e-05
2 *1722:B 0.000136825
3 *1720:X 0.000667502
4 *198:8 0.000878295
5 *1721:B *1797:B1 0
6 *1721:B *199:8 0.000247778
7 *1721:B *352:11 0.000263422
8 *1722:B *1724:C 5.52302e-05
9 *1722:B *199:8 0.000101545
10 *1722:B *200:20 5.33005e-05
11 *1722:B *352:11 9.91086e-05
12 *1722:B *469:8 2.77143e-05
13 *189:16 *198:8 0.00100142
*RES
1 *1720:X *198:8 23.3714 
2 *198:8 *1722:B 16.925 
3 *198:8 *1721:B 17.2643 
*END

*D_NET *199 0.001348
*CONN
*I *1724:B I *D sky130_fd_sc_hd__or3_2
*I *1723:A I *D sky130_fd_sc_hd__nor2_2
*I *1721:Y O *D sky130_fd_sc_hd__nor2_2
*CAP
1 *1724:B 0
2 *1723:A 8.04547e-05
3 *1721:Y 0.00014064
4 *199:8 0.000221095
5 *1723:A *352:11 7.73758e-05
6 *199:8 *1797:B1 6.07626e-05
7 *199:8 *352:11 4.31193e-05
8 *1721:B *199:8 0.000247778
9 *1722:B *199:8 0.000101545
10 *1725:A *199:8 0.00019117
11 *114:23 *1723:A 0.000103267
12 *114:23 *199:8 8.07951e-05
13 *119:19 *1723:A 0
*RES
1 *1721:Y *199:8 19.3893 
2 *199:8 *1723:A 15.7464 
3 *199:8 *1724:B 13.8 
*END

*D_NET *200 0.00221859
*CONN
*I *1807:B1 I *D sky130_fd_sc_hd__a21oi_2
*I *1723:B I *D sky130_fd_sc_hd__nor2_2
*I *1724:C I *D sky130_fd_sc_hd__or3_2
*I *1722:X O *D sky130_fd_sc_hd__and2_2
*CAP
1 *1807:B1 0.000159276
2 *1723:B 0.00022095
3 *1724:C 3.66959e-05
4 *1722:X 8.02992e-05
5 *200:20 0.000423829
6 *1723:B *352:11 0.000243635
7 *1723:B *496:10 0
8 *1724:C *469:8 5.03772e-05
9 *1807:B1 *284:10 3.14048e-05
10 *1807:B1 *352:11 0.000313458
11 *1637:B *1723:B 0
12 *1721:A *1807:B1 0.000173804
13 *1722:A *1723:B 5.7616e-05
14 *1722:A *1807:B1 0.000137939
15 *1722:B *1724:C 5.52302e-05
16 *1722:B *200:20 5.33005e-05
17 *114:23 *1723:B 0.000180777
*RES
1 *1722:X *1724:C 19.5464 
2 *1722:X *200:20 14.3357 
3 *200:20 *1723:B 19.1571 
4 *200:20 *1807:B1 18.8179 
*END

*D_NET *201 0.000766277
*CONN
*I *1725:B I *D sky130_fd_sc_hd__xor2_2
*I *1723:Y O *D sky130_fd_sc_hd__nor2_2
*CAP
1 *1725:B 0.000143036
2 *1723:Y 0.000143036
3 *1725:B *1797:B1 0.000127446
4 *1725:A *1725:B 0.000177234
5 *114:23 *1725:B 0.000175526
6 *119:19 *1725:B 0
*RES
1 *1723:Y *1725:B 22.675 
*END

*D_NET *202 0.000683204
*CONN
*I *1797:B1 I *D sky130_fd_sc_hd__o21ai_2
*I *1724:X O *D sky130_fd_sc_hd__or3_2
*CAP
1 *1797:B1 0.000231802
2 *1724:X 0.000231802
3 *1797:B1 *1797:A2 0
4 *1797:B1 *469:8 1.72894e-05
5 *1721:B *1797:B1 0
6 *1725:A *1797:B1 1.41029e-05
7 *1725:B *1797:B1 0.000127446
8 *1797:A1 *1797:B1 0
9 *119:19 *1797:B1 0
10 *199:8 *1797:B1 6.07626e-05
*RES
1 *1724:X *1797:B1 32.5107 
*END

*D_NET *203 0.000791492
*CONN
*I *1726:B I *D sky130_fd_sc_hd__xnor2_2
*I *1797:A2 I *D sky130_fd_sc_hd__o21ai_2
*I *1725:X O *D sky130_fd_sc_hd__xor2_2
*CAP
1 *1726:B 1.28178e-05
2 *1797:A2 0.000157175
3 *1725:X 0
4 *203:4 0.000169993
5 *1726:A *1726:B 8.76257e-05
6 *1726:A *1797:A2 5.52302e-05
7 *1728:A2 *1797:A2 0
8 *1797:A1 *1797:A2 0.000106552
9 *1797:B1 *1797:A2 0
10 *188:10 *1726:B 5.62995e-05
11 *188:10 *1797:A2 7.3237e-05
12 *189:16 *1797:A2 7.25614e-05
*RES
1 *1725:X *203:4 9.3 
2 *203:4 *1797:A2 22.5143 
3 *203:4 *1726:B 10.2464 
*END

*D_NET *204 0.000974284
*CONN
*I *1727:C I *D sky130_fd_sc_hd__nor3_2
*I *1728:B1 I *D sky130_fd_sc_hd__o21a_4
*I *1726:Y O *D sky130_fd_sc_hd__xnor2_2
*CAP
1 *1727:C 0.000119208
2 *1728:B1 0.000204652
3 *1726:Y 3.2426e-05
4 *204:6 0.000356286
5 *1727:C *1814:A_N 1.17968e-05
6 *1727:C *205:26 8.39e-05
7 *1727:C *222:8 1.00375e-05
8 *1728:B1 *1814:A_N 0
9 *1728:B1 *241:8 0
10 *1727:A *1727:C 0
11 *1727:A *1728:B1 1.76039e-05
12 *1728:A1 *1728:B1 0.000138373
*RES
1 *1726:Y *204:6 9.83571 
2 *204:6 *1728:B1 22.3179 
3 *204:6 *1727:C 20.8536 
*END

*D_NET *205 0.00170554
*CONN
*I *1814:A_N I *D sky130_fd_sc_hd__and2b_2
*I *1744:A I *D sky130_fd_sc_hd__or3_4
*I *1745:A1 I *D sky130_fd_sc_hd__o21ai_2
*I *1727:Y O *D sky130_fd_sc_hd__nor3_2
*CAP
1 *1814:A_N 0.00014291
2 *1744:A 0.000163794
3 *1745:A1 0.000225692
4 *1727:Y 0.000271143
5 *205:26 0.000352156
6 *1744:A *1744:B 7.3237e-05
7 *1745:A1 *1747:A1 5.80706e-06
8 *1745:A1 *222:8 0
9 *1814:A_N *206:16 2.89114e-05
10 *1814:A_N *241:8 9.34004e-05
11 *205:26 *222:8 0.000129868
12 *205:26 *241:8 1.17968e-05
13 *1727:A *1745:A1 5.59013e-05
14 *1727:B *1745:A1 5.52302e-05
15 *1727:C *1814:A_N 1.17968e-05
16 *1727:C *205:26 8.39e-05
17 *1728:B1 *1814:A_N 0
18 *119:19 *1745:A1 0
*RES
1 *1727:Y *1745:A1 31.2964 
2 *1727:Y *205:26 15.7464 
3 *205:26 *1744:A 16.3893 
4 *205:26 *1814:A_N 17.0143 
*END

*D_NET *206 0.00104959
*CONN
*I *2095:A I *D sky130_fd_sc_hd__buf_2
*I *1744:C I *D sky130_fd_sc_hd__or3_4
*I *1728:X O *D sky130_fd_sc_hd__o21a_4
*CAP
1 *2095:A 3.3415e-05
2 *1744:C 0
3 *1728:X 0.000335366
4 *206:16 0.000368781
5 *206:16 *1744:B 5.52302e-05
6 *206:16 *2076:A 9.24395e-05
7 *206:16 *291:10 2.89016e-05
8 *206:16 *340:14 0
9 y[4] *206:16 0.000106542
10 *1814:A_N *206:16 2.89114e-05
*RES
1 *1728:X *206:16 25.2286 
2 *206:16 *1744:C 9.3 
3 *206:16 *2095:A 9.83571 
*END

*D_NET *207 0.000749319
*CONN
*I *1754:A1 I *D sky130_fd_sc_hd__a21oi_2
*I *1729:Y O *D sky130_fd_sc_hd__nand2_2
*CAP
1 *1754:A1 0.000155929
2 *1729:Y 0.000155929
3 *1754:A1 *1729:B 6.05161e-06
4 *1754:A1 *1756:B 0
5 *1754:A1 *1756:C 1.33343e-05
6 *1754:A1 *1757:A 0.000100969
7 *1754:A1 *230:23 6.05161e-06
8 *1754:A1 *234:30 2.77143e-05
9 *1754:A1 *448:34 0.000137983
10 *1754:A1 *465:24 0.000145357
*RES
1 *1729:Y *1754:A1 32.0464 
*END

*D_NET *208 0.0031742
*CONN
*I *1758:A1 I *D sky130_fd_sc_hd__o21a_2
*I *1759:A I *D sky130_fd_sc_hd__nor3_2
*I *1733:B_N I *D sky130_fd_sc_hd__and4bb_2
*I *1732:B1 I *D sky130_fd_sc_hd__o2bb2a_2
*I *1730:X O *D sky130_fd_sc_hd__and3_2
*CAP
1 *1758:A1 0
2 *1759:A 0.000109993
3 *1733:B_N 0
4 *1732:B1 0.000294725
5 *1730:X 0.000508069
6 *208:34 0.000170648
7 *208:25 6.06554e-05
8 *208:10 0.000802794
9 *1732:B1 *1732:A1_N 0.000125149
10 *1732:B1 *1732:A2_N 2.32625e-05
11 *1732:B1 *1734:B 0
12 *1732:B1 *447:80 1.76039e-05
13 *1732:B1 *501:12 0
14 *1759:A *1758:B1 5.52302e-05
15 *1759:A *1759:B 0.000271791
16 *1759:A *1759:C 2.27622e-05
17 *1759:A *211:8 1.21289e-05
18 *1759:A *235:10 9.90431e-05
19 *208:10 *1649:B 2.05938e-05
20 *208:10 *2086:A 0
21 *208:10 *234:30 0.000142469
22 *208:10 *447:80 0.000107353
23 *208:10 *501:12 0
24 *208:34 *1759:B 3.57366e-05
25 *208:34 *211:8 0.000142856
26 *1650:A *208:10 0.000151333
*RES
1 *1730:X *208:10 22.2107 
2 *208:10 *1732:B1 19.3714 
3 *208:10 *208:25 4.5 
4 *208:25 *1733:B_N 9.3 
5 *208:25 *208:34 1.78571 
6 *208:34 *1759:A 13.2821 
7 *208:34 *1758:A1 9.3 
*END

*D_NET *209 0.00124333
*CONN
*I *1732:B2 I *D sky130_fd_sc_hd__o2bb2a_2
*I *1733:A_N I *D sky130_fd_sc_hd__and4bb_2
*I *1731:Y O *D sky130_fd_sc_hd__a21oi_2
*CAP
1 *1732:B2 0.000146567
2 *1733:A_N 2.23854e-05
3 *1731:Y 0.000257293
4 *209:6 0.000426246
5 *1732:B2 *1732:A2_N 8.18686e-05
6 *1732:B2 *211:8 1.40306e-05
7 *1732:B2 *519:10 0
8 *209:6 *1646:A 6.79057e-05
9 *209:6 *1731:A1 0.000114655
10 y[0] *209:6 5.52302e-05
11 *1731:B1 *209:6 5.71472e-05
*RES
1 *1731:Y *209:6 14.3536 
2 *209:6 *1733:A_N 9.72857 
3 *209:6 *1732:B2 20.9964 
*END

*D_NET *210 0.000238001
*CONN
*I *1734:A I *D sky130_fd_sc_hd__nor2_2
*I *1732:X O *D sky130_fd_sc_hd__o2bb2a_2
*CAP
1 *1734:A 0.000119
2 *1732:X 0.000119
*RES
1 *1732:X *1734:A 20.6893 
*END

*D_NET *211 0.00196763
*CONN
*I *2086:A I *D sky130_fd_sc_hd__buf_2
*I *1734:B I *D sky130_fd_sc_hd__nor2_2
*I *1733:X O *D sky130_fd_sc_hd__and4bb_2
*CAP
1 *2086:A 8.37903e-05
2 *1734:B 0.000204037
3 *1733:X 0.000392891
4 *211:8 0.000680718
5 *1734:B *1732:A1_N 0
6 *1734:B *212:10 0
7 *1734:B *234:30 3.69697e-05
8 *1734:B *501:12 2.84398e-05
9 *2086:A *234:30 6.19181e-05
10 *2086:A *501:12 6.14094e-05
11 *211:8 *1733:D 9.60939e-05
12 *211:8 *1759:B 9.71197e-05
13 *1732:B1 *1734:B 0
14 *1732:B2 *211:8 1.40306e-05
15 *1735:A *2086:A 5.52238e-05
16 *1759:A *211:8 1.21289e-05
17 *208:10 *2086:A 0
18 *208:34 *211:8 0.000142856
*RES
1 *1733:X *211:8 18.8536 
2 *211:8 *1734:B 17.2643 
3 *211:8 *2086:A 15.9786 
*END

*D_NET *212 0.00118096
*CONN
*I *1736:B I *D sky130_fd_sc_hd__xnor2_2
*I *1735:B I *D sky130_fd_sc_hd__and2_2
*I *1734:Y O *D sky130_fd_sc_hd__nor2_2
*CAP
1 *1736:B 0.000143428
2 *1735:B 0
3 *1734:Y 0.000447051
4 *212:10 0.000590479
5 *1736:B *234:30 0
6 *1736:B *235:14 0
7 *212:10 *234:30 0
8 *212:10 *235:14 0
9 *1734:B *212:10 0
*RES
1 *1734:Y *212:10 20.6571 
2 *212:10 *1735:B 13.8 
3 *212:10 *1736:B 16.3536 
*END

*D_NET *213 0.00109246
*CONN
*I *1761:A1 I *D sky130_fd_sc_hd__o21a_2
*I *1762:A I *D sky130_fd_sc_hd__nor3_2
*I *1735:X O *D sky130_fd_sc_hd__and2_2
*CAP
1 *1761:A1 0
2 *1762:A 0.000129387
3 *1735:X 0.000235267
4 *213:6 0.000364654
5 *1762:A *1738:B 1.02504e-05
6 *1762:A *1761:A2 0
7 *1762:A *1762:C 6.39262e-05
8 *1762:A *216:8 5.33433e-05
9 *1762:A *237:10 1.19402e-05
10 *1762:A *238:10 8.08376e-05
11 *213:6 *238:10 0.000142856
*RES
1 *1735:X *213:6 13.5321 
2 *213:6 *1762:A 22.1036 
3 *213:6 *1761:A1 9.3 
*END

*D_NET *214 0.000790167
*CONN
*I *1738:A I *D sky130_fd_sc_hd__nor2_2
*I *1739:A I *D sky130_fd_sc_hd__and2_4
*I *1736:Y O *D sky130_fd_sc_hd__xnor2_2
*CAP
1 *1738:A 0
2 *1739:A 0.000125111
3 *1736:Y 9.15704e-05
4 *214:6 0.000216681
5 *1739:A *1738:B 0.000126439
6 *1739:A *1739:B 2.89114e-05
7 *1739:A *215:6 2.59355e-05
8 *1739:A *217:10 0
9 *1739:A *238:10 0.000175519
*RES
1 *1736:Y *214:6 10.6571 
2 *214:6 *1739:A 21.4964 
3 *214:6 *1738:A 9.3 
*END

*D_NET *215 0.00438204
*CONN
*I *1739:B I *D sky130_fd_sc_hd__and2_4
*I *1738:B I *D sky130_fd_sc_hd__nor2_2
*I *1737:X O *D sky130_fd_sc_hd__and2_2
*CAP
1 *1739:B 0.000106742
2 *1738:B 6.84994e-05
3 *1737:X 0.00160878
4 *215:6 0.00178402
5 *1738:B *217:10 0
6 *1739:B *1741:C 0
7 *215:6 *1648:A2 4.08484e-05
8 *215:6 *1648:B1 0.000137983
9 *215:6 *1649:A 0.000134184
10 *215:6 *1737:A 5.05892e-05
11 *215:6 *455:34 1.98839e-05
12 *1650:C_N *215:6 2.49643e-05
13 *1651:B1_N *215:6 0.000193268
14 *1739:A *1738:B 0.000126439
15 *1739:A *1739:B 2.89114e-05
16 *1739:A *215:6 2.59355e-05
17 *1762:A *1738:B 1.02504e-05
18 *127:8 *215:6 2.07382e-05
*RES
1 *1737:X *215:6 29.1393 
2 *215:6 *1738:B 19.9429 
3 *215:6 *1739:B 10.9786 
*END

*D_NET *216 0.00259703
*CONN
*I *1741:B I *D sky130_fd_sc_hd__or3_4
*I *1740:A I *D sky130_fd_sc_hd__nor2_4
*I *1738:Y O *D sky130_fd_sc_hd__nor2_2
*CAP
1 *1741:B 0.000371797
2 *1740:A 4.09477e-05
3 *1738:Y 0.000594161
4 *216:8 0.00100691
5 *1740:A *1742:A 4.46186e-06
6 *1740:A *240:8 0
7 *1741:B *1742:A 9.33907e-05
8 *1741:B *1751:B1 0
9 *1741:B *240:8 0
10 *216:8 *1740:B 0.000186379
11 *216:8 *1762:C 2.95726e-05
12 *216:8 *1763:B 0.00014285
13 *1741:A *1741:B 7.32173e-05
14 *1762:A *216:8 5.33433e-05
*RES
1 *1738:Y *216:8 21.7286 
2 *216:8 *1740:A 14.5321 
3 *216:8 *1741:B 20.2821 
*END

*D_NET *217 0.0018051
*CONN
*I *1741:C I *D sky130_fd_sc_hd__or3_4
*I *1740:B I *D sky130_fd_sc_hd__nor2_4
*I *1762:B I *D sky130_fd_sc_hd__nor3_2
*I *1761:A2 I *D sky130_fd_sc_hd__o21a_2
*I *1739:X O *D sky130_fd_sc_hd__and2_4
*CAP
1 *1741:C 7.89338e-05
2 *1740:B 0.000170276
3 *1762:B 0
4 *1761:A2 0.000206407
5 *1739:X 0
6 *217:23 0.000170276
7 *217:10 0.000363618
8 *217:4 0.000236144
9 *1740:B *1762:C 9.90431e-05
10 *1740:B *1763:B 0.00014285
11 *1761:A2 *1762:C 7.92975e-05
12 *1761:A2 *1763:A 7.43578e-06
13 *1761:A2 *1763:B 0
14 *1761:A2 *238:10 6.4443e-05
15 *217:10 *1763:B 0
16 *217:10 *240:8 0
17 *1738:B *217:10 0
18 *1739:A *217:10 0
19 *1739:B *1741:C 0
20 *1762:A *1761:A2 0
21 *216:8 *1740:B 0.000186379
*RES
1 *1739:X *217:4 9.3 
2 *217:4 *217:10 6.98214 
3 *217:10 *1761:A2 17.8179 
4 *217:10 *217:23 4.5 
5 *217:23 *1762:B 9.3 
6 *217:23 *1740:B 13.9429 
7 *217:4 *1741:C 10.675 
*END

*D_NET *218 0.00052128
*CONN
*I *1742:A I *D sky130_fd_sc_hd__xor2_4
*I *1740:Y O *D sky130_fd_sc_hd__nor2_4
*CAP
1 *1742:A 0.000211714
2 *1740:Y 0.000211714
3 *1742:A *1751:B1 0
4 *1740:A *1742:A 4.46186e-06
5 *1741:B *1742:A 9.33907e-05
*RES
1 *1740:Y *1742:A 31.975 
*END

*D_NET *219 0.000667527
*CONN
*I *1751:B1 I *D sky130_fd_sc_hd__o21ai_4
*I *1741:X O *D sky130_fd_sc_hd__or3_4
*CAP
1 *1751:B1 0.000186966
2 *1741:X 0.000186966
3 *1751:B1 *1764:B 8.71438e-05
4 *1741:A *1751:B1 0.000149021
5 *1741:B *1751:B1 0
6 *1742:A *1751:B1 0
7 *1742:B *1751:B1 5.74309e-05
*RES
1 *1741:X *1751:B1 32.2786 
*END

*D_NET *220 0.000711655
*CONN
*I *1743:A I *D sky130_fd_sc_hd__xnor2_2
*I *2090:A I *D sky130_fd_sc_hd__buf_2
*I *1742:X O *D sky130_fd_sc_hd__xor2_4
*CAP
1 *1743:A 0.000250164
2 *2090:A 0
3 *1742:X 0.000105663
4 *220:6 0.000355828
*RES
1 *1742:X *220:6 6.44643 
2 *220:6 *2090:A 13.8 
3 *220:6 *1743:A 18.0143 
*END

*D_NET *221 0.00569386
*CONN
*I *1744:B I *D sky130_fd_sc_hd__or3_4
*I *1745:B1 I *D sky130_fd_sc_hd__o21ai_2
*I *1743:Y O *D sky130_fd_sc_hd__xnor2_2
*CAP
1 *1744:B 0.000348023
2 *1745:B1 0.000289973
3 *1743:Y 0.000737962
4 *221:8 0.00137596
5 *1744:B *1814:B 3.34295e-05
6 *1744:B *1817:A2 2.84494e-05
7 *1744:B *2076:A 0
8 *1744:B *241:8 0.000475342
9 *1744:B *340:14 0
10 *1745:B1 *1746:C1 1.02936e-05
11 *1745:B1 *1817:B1 0.000248138
12 *1745:B1 *223:6 3.69047e-06
13 *1745:B1 *224:6 5.52238e-05
14 *221:8 *1764:B 0.000224168
15 *221:8 *1817:A1 8.03962e-05
16 *221:8 *1817:A2 5.33786e-05
17 *221:8 *1864:A 6.66813e-05
18 *221:8 *227:8 0.000200555
19 *221:8 *241:8 0.00124479
20 *221:8 *340:14 0
21 y[4] *1744:B 8.89385e-05
22 *1744:A *1744:B 7.3237e-05
23 *206:16 *1744:B 5.52302e-05
*RES
1 *1743:Y *221:8 35.175 
2 *221:8 *1745:B1 17.6393 
3 *221:8 *1744:B 22.175 
*END

*D_NET *222 0.00227945
*CONN
*I *1814:B I *D sky130_fd_sc_hd__and2b_2
*I *1746:B1 I *D sky130_fd_sc_hd__o211a_2
*I *1747:A2 I *D sky130_fd_sc_hd__a211o_4
*I *1744:X O *D sky130_fd_sc_hd__or3_4
*CAP
1 *1814:B 4.61758e-05
2 *1746:B1 0
3 *1747:A2 0.000182429
4 *1744:X 0.000194521
5 *222:8 0.000330775
6 *1747:A2 *1748:B 0.00031119
7 *1747:A2 *241:8 0.000197984
8 *1814:B *241:8 6.39901e-05
9 *222:8 *1747:A1 0
10 *222:8 *241:8 0.000366682
11 y[4] *1814:B 0.00015234
12 *1727:C *222:8 1.00375e-05
13 *1744:B *1814:B 3.34295e-05
14 *1745:A1 *222:8 0
15 *1746:A2 *1747:A2 0.00017309
16 *1747:C1 *1747:A2 5.52238e-05
17 *138:8 *1747:A2 3.17148e-05
18 *205:26 *222:8 0.000129868
*RES
1 *1744:X *222:8 18.4786 
2 *222:8 *1747:A2 19.3536 
3 *222:8 *1746:B1 13.8 
4 *1744:X *1814:B 29.5464 
*END

*D_NET *223 0.00122676
*CONN
*I *1746:C1 I *D sky130_fd_sc_hd__o211a_2
*I *1747:A1 I *D sky130_fd_sc_hd__a211o_4
*I *1745:Y O *D sky130_fd_sc_hd__o21ai_2
*CAP
1 *1746:C1 0.000120632
2 *1747:A1 0.000133041
3 *1745:Y 2.21186e-05
4 *223:6 0.000275791
5 *1746:C1 *1745:A2 0.000354098
6 *1746:C1 *1817:B1 0.000123645
7 *1746:C1 *224:6 2.89016e-05
8 *1747:A1 *1748:A_N 8.06331e-05
9 *223:6 *1745:A2 5.52238e-05
10 *1745:A1 *1747:A1 5.80706e-06
11 *1745:B1 *1746:C1 1.02936e-05
12 *1745:B1 *223:6 3.69047e-06
13 *1746:A1 *1746:C1 1.28809e-05
14 *1746:A1 *1747:A1 0
15 *119:19 *1747:A1 0
16 *222:8 *1747:A1 0
*RES
1 *1745:Y *223:6 9.83571 
2 *223:6 *1747:A1 20.8536 
3 *223:6 *1746:C1 13.1393 
*END

*D_NET *224 0.00201487
*CONN
*I *1817:B1 I *D sky130_fd_sc_hd__a21o_4
*I *1748:A_N I *D sky130_fd_sc_hd__nand2b_4
*I *1746:X O *D sky130_fd_sc_hd__o211a_2
*CAP
1 *1817:B1 0.000271278
2 *1748:A_N 0.00019306
3 *1746:X 1.40568e-05
4 *224:6 0.000478395
5 *1748:A_N *1748:B 0
6 *1748:A_N *1750:B 5.33005e-05
7 *1817:B1 *1745:A2 0.000109604
8 *1659:A *1748:A_N 5.52238e-05
9 *1745:B1 *1817:B1 0.000248138
10 *1745:B1 *224:6 5.52238e-05
11 *1746:A1 *1748:A_N 7.25104e-05
12 *1746:A1 *1817:B1 1.28809e-05
13 *1746:C1 *1817:B1 0.000123645
14 *1746:C1 *224:6 2.89016e-05
15 *1747:A1 *1748:A_N 8.06331e-05
16 *122:39 *1748:A_N 0.000218019
*RES
1 *1746:X *224:6 9.83571 
2 *224:6 *1748:A_N 23.5143 
3 *224:6 *1817:B1 15.1929 
*END

*D_NET *225 0.000606664
*CONN
*I *2085:A I *D sky130_fd_sc_hd__buf_6
*I *1817:A2 I *D sky130_fd_sc_hd__a21o_4
*I *1747:X O *D sky130_fd_sc_hd__a211o_4
*CAP
1 *2085:A 6.23037e-05
2 *1817:A2 9.0332e-05
3 *1747:X 0
4 *225:4 0.000152636
5 *1817:A2 *1748:B 1.55885e-05
6 *1817:A2 *1817:A1 0.000150632
7 *2085:A *1748:B 5.33433e-05
8 *1744:B *1817:A2 2.84494e-05
9 *221:8 *1817:A2 5.33786e-05
*RES
1 *1747:X *225:4 9.3 
2 *225:4 *1817:A2 20.7821 
3 *225:4 *2085:A 10.675 
*END

*D_NET *226 0.000620073
*CONN
*I *1750:B I *D sky130_fd_sc_hd__xnor2_2
*I *1748:Y O *D sky130_fd_sc_hd__nand2b_4
*CAP
1 *1750:B 0.000247524
2 *1748:Y 0.000247524
3 *1659:A *1750:B 7.17235e-05
4 *1748:A_N *1750:B 5.33005e-05
*RES
1 *1748:Y *1750:B 22.8321 
*END

*D_NET *227 0.00150503
*CONN
*I *1817:A1 I *D sky130_fd_sc_hd__a21o_4
*I *1750:A I *D sky130_fd_sc_hd__xnor2_2
*I *1749:X O *D sky130_fd_sc_hd__a21o_2
*CAP
1 *1817:A1 0.000243696
2 *1750:A 0
3 *1749:X 0.000293028
4 *227:8 0.000536723
5 *1817:A1 *340:14 0
6 *227:8 *340:14 0
7 *1817:A2 *1817:A1 0.000150632
8 *2052:A *227:8 0
9 *221:8 *1817:A1 8.03962e-05
10 *221:8 *227:8 0.000200555
*RES
1 *1749:X *227:8 20.6036 
2 *227:8 *1750:A 13.8 
3 *227:8 *1817:A1 18.7821 
*END

*D_NET *228 0.00318158
*CONN
*I *1764:A I *D sky130_fd_sc_hd__xor2_2
*I *1874:A1 I *D sky130_fd_sc_hd__a21o_2
*I *1863:A1 I *D sky130_fd_sc_hd__a21oi_2
*I *1751:Y O *D sky130_fd_sc_hd__o21ai_4
*CAP
1 *1764:A 0.000266436
2 *1874:A1 0.000327769
3 *1863:A1 0.000136621
4 *1751:Y 0
5 *228:8 0.000752514
6 *228:4 0.00055456
7 *1764:A *1764:B 0.000186215
8 *1764:A *340:14 6.58289e-05
9 *1863:A1 *1864:B 0.000171492
10 *1874:A1 *1862:A 3.24049e-05
11 *1874:A1 *1862:B 0.000143633
12 *1874:A1 *1864:B 0.000198115
13 *1874:A1 *337:34 2.38501e-05
14 *228:8 *1751:A2 0.000184503
15 *134:12 *228:8 0.000137639
*RES
1 *1751:Y *228:4 9.3 
2 *228:4 *228:8 9.55357 
3 *228:8 *1863:A1 16.6571 
4 *228:8 *1874:A1 20.5857 
5 *228:4 *1764:A 25.1036 
*END

*D_NET *229 0.00133953
*CONN
*I *1860:A I *D sky130_fd_sc_hd__or3_2
*I *1859:A1 I *D sky130_fd_sc_hd__o21ai_2
*I *1754:B1 I *D sky130_fd_sc_hd__a21oi_2
*I *1752:X O *D sky130_fd_sc_hd__and3_2
*CAP
1 *1860:A 0
2 *1859:A1 3.91576e-05
3 *1754:B1 4.33319e-05
4 *1752:X 0.000434234
5 *229:22 0.00043006
6 *1754:B1 *465:24 9.80173e-05
7 *1859:A1 *1860:B 3.11088e-05
8 *1859:A1 *1860:C 3.11088e-05
9 *229:22 *1908:A1 0
10 *229:22 *447:35 0
11 *229:22 *455:34 0
12 *229:22 *466:38 0.000146619
13 *124:10 *229:22 8.5896e-05
*RES
1 *1752:X *1754:B1 19.5464 
2 *1752:X *229:22 24.8 
3 *229:22 *1859:A1 10.2464 
4 *229:22 *1860:A 9.3 
*END

*D_NET *230 0.00249738
*CONN
*I *1908:A1 I *D sky130_fd_sc_hd__a21o_2
*I *1858:A1 I *D sky130_fd_sc_hd__o21a_2
*I *1871:C I *D sky130_fd_sc_hd__and3_2
*I *1754:A2 I *D sky130_fd_sc_hd__a21oi_2
*I *1753:Y O *D sky130_fd_sc_hd__nand2_2
*CAP
1 *1908:A1 0.000229978
2 *1858:A1 0.000196399
3 *1871:C 0
4 *1754:A2 9.95971e-05
5 *1753:Y 2.85076e-05
6 *230:25 0.000196399
7 *230:23 0.000394802
8 *230:6 0.000292929
9 *1754:A2 *1756:B 0
10 *1754:A2 *233:8 7.50601e-05
11 *1754:A2 *233:23 1.76135e-05
12 *1754:A2 *465:24 0.000175512
13 *1858:A1 *1858:A2 2.59355e-05
14 *1858:A1 *334:12 1.39841e-05
15 *1858:A1 *449:40 9.90431e-05
16 *1858:A1 *449:48 5.16637e-05
17 *1858:A1 *466:38 0
18 *1858:A1 *466:42 1.04232e-05
19 *1858:A1 *466:52 7.77652e-05
20 *1908:A1 *1872:B 0.000132914
21 *1908:A1 *334:12 7.27183e-05
22 *1908:A1 *335:12 0.000103437
23 *1908:A1 *449:40 0
24 *1908:A1 *466:38 0
25 *1908:A1 *466:52 1.1068e-05
26 *230:6 *1757:B 5.52238e-05
27 *230:23 *1757:B 8.66063e-05
28 *230:23 *233:23 0
29 *230:23 *448:34 1.02821e-05
30 *230:23 *449:48 3.06406e-05
31 *230:23 *449:50 2.8266e-06
32 *230:23 *466:38 0
33 *1754:A1 *230:23 6.05161e-06
34 *229:22 *1908:A1 0
*RES
1 *1753:Y *230:6 9.83571 
2 *230:6 *1754:A2 21.1571 
3 *230:6 *230:23 7.5 
4 *230:23 *230:25 4.5 
5 *230:25 *1871:C 9.3 
6 *230:25 *1858:A1 13.55 
7 *230:23 *1908:A1 18.4786 
*END

*D_NET *231 0.000661271
*CONN
*I *1756:C I *D sky130_fd_sc_hd__and3_2
*I *1755:B1 I *D sky130_fd_sc_hd__a21oi_2
*I *1754:Y O *D sky130_fd_sc_hd__a21oi_2
*CAP
1 *1756:C 0.000168267
2 *1755:B1 0.000143485
3 *1754:Y 0
4 *231:4 0.000311752
5 *1755:B1 *1756:B 0
6 *1755:B1 *1757:A 0
7 *1755:B1 *466:38 0
8 *1756:C *465:24 2.44318e-05
9 *1754:A1 *1756:C 1.33343e-05
*RES
1 *1754:Y *231:4 9.3 
2 *231:4 *1755:B1 20.4786 
3 *231:4 *1756:C 12.3179 
*END

*D_NET *232 0.000691863
*CONN
*I *1757:A I *D sky130_fd_sc_hd__nor2_2
*I *1755:Y O *D sky130_fd_sc_hd__a21oi_2
*CAP
1 *1757:A 0.000163575
2 *1755:Y 0.000163575
3 *1757:A *1756:B 0
4 *1757:A *449:50 6.98302e-05
5 *1757:A *449:56 0.000104974
6 *1757:A *466:38 8.89385e-05
7 *1754:A1 *1757:A 0.000100969
8 *1755:B1 *1757:A 0
*RES
1 *1755:Y *1757:A 31.975 
*END

*D_NET *233 0.00238496
*CONN
*I *1859:A2 I *D sky130_fd_sc_hd__o21ai_2
*I *1860:B I *D sky130_fd_sc_hd__or3_2
*I *1757:B I *D sky130_fd_sc_hd__nor2_2
*I *1756:X O *D sky130_fd_sc_hd__and3_2
*CAP
1 *1859:A2 1.76176e-05
2 *1860:B 0.000135676
3 *1757:B 5.03326e-05
4 *1756:X 7.97341e-05
5 *233:23 0.000452263
6 *233:8 0.000429036
7 *1757:B *448:34 2.28598e-05
8 *1757:B *465:24 0.000137983
9 *1859:A2 *1860:C 1.37246e-05
10 *1860:B *1860:C 1.85914e-05
11 *233:8 *1756:B 5.80706e-06
12 *233:8 *448:34 5.59013e-05
13 *233:23 *1858:A2 2.60107e-05
14 *233:23 *1858:B1 0.000127079
15 *233:23 *1860:C 0.000160608
16 *233:23 *448:28 8.96273e-05
17 *233:23 *449:40 0.00027661
18 *233:23 *466:52 1.98839e-05
19 *1754:A2 *233:8 7.50601e-05
20 *1754:A2 *233:23 1.76135e-05
21 *1859:A1 *1860:B 3.11088e-05
22 *230:6 *1757:B 5.52238e-05
23 *230:23 *1757:B 8.66063e-05
24 *230:23 *233:23 0
*RES
1 *1756:X *233:8 15.7464 
2 *233:8 *1757:B 15.5679 
3 *233:8 *233:23 12.1786 
4 *233:23 *1860:B 11.3893 
5 *233:23 *1859:A2 9.72857 
*END

*D_NET *234 0.00489618
*CONN
*I *1759:C I *D sky130_fd_sc_hd__nor3_2
*I *1758:B1 I *D sky130_fd_sc_hd__o21a_2
*I *1757:Y O *D sky130_fd_sc_hd__nor2_2
*CAP
1 *1759:C 0.000201813
2 *1758:B1 2.12658e-05
3 *1757:Y 0.00120326
4 *234:30 0.00142634
5 *1759:C *235:10 0.000308124
6 *234:30 *1648:A1 9.47028e-05
7 *234:30 *1729:A 0.000301121
8 *234:30 *1729:B 0.00017372
9 *234:30 *235:14 0
10 *234:30 *448:34 1.4487e-05
11 *1646:C *234:30 0.000136951
12 *1650:A *234:30 0
13 *1650:C_N *234:30 8.69386e-05
14 *1651:A1 *234:30 0
15 *1734:B *234:30 3.69697e-05
16 *1736:A *234:30 9.18051e-05
17 *1736:B *234:30 0
18 *1754:A1 *234:30 2.77143e-05
19 *1759:A *1758:B1 5.52302e-05
20 *1759:A *1759:C 2.27622e-05
21 *2086:A *234:30 6.19181e-05
22 *124:10 *234:30 9.90431e-05
23 *124:34 *234:30 0.000332392
24 *126:10 *234:30 0
25 *129:12 *234:30 5.71472e-05
26 *208:10 *234:30 0.000142469
27 *212:10 *234:30 0
*RES
1 *1757:Y *234:30 43.0857 
2 *234:30 *1758:B1 9.83571 
3 *234:30 *1759:C 13.5679 
*END

*D_NET *235 0.00406578
*CONN
*I *1760:A I *D sky130_fd_sc_hd__nor2_2
*I *1862:A I *D sky130_fd_sc_hd__xnor2_2
*I *1875:A1 I *D sky130_fd_sc_hd__o21a_4
*I *1873:A1 I *D sky130_fd_sc_hd__a21o_2
*I *1758:X O *D sky130_fd_sc_hd__o21a_2
*CAP
1 *1760:A 5.90226e-05
2 *1862:A 0.000277923
3 *1875:A1 0
4 *1873:A1 0.000179783
5 *1758:X 0.000153562
6 *235:25 0.000317431
7 *235:14 0.000871799
8 *235:10 0.000865092
9 *1760:A *1760:B 0.000186669
10 *1862:A *1862:B 7.15503e-05
11 *1862:A *1874:B1 0.000101915
12 *1862:A *337:16 3.17203e-05
13 *1862:A *337:34 9.84729e-05
14 *1873:A1 *1873:A2 0.000269747
15 *235:10 *1759:B 8.07526e-05
16 *235:10 *1760:B 5.52238e-05
17 *235:14 *237:10 0
18 *235:14 *238:10 0
19 *235:25 *337:16 5.54817e-06
20 *1736:B *235:14 0
21 *1759:A *235:10 9.90431e-05
22 *1759:C *235:10 0.000308124
23 *1874:A1 *1862:A 3.24049e-05
24 *212:10 *235:14 0
25 *234:30 *235:14 0
*RES
1 *1758:X *235:10 14.0857 
2 *235:10 *235:14 15.8571 
3 *235:14 *1873:A1 16.3893 
4 *235:14 *235:25 0.732143 
5 *235:25 *1875:A1 13.8 
6 *235:25 *1862:A 19.7821 
7 *235:10 *1760:A 11.0679 
*END

*D_NET *236 0.000604053
*CONN
*I *1760:B I *D sky130_fd_sc_hd__nor2_2
*I *1759:Y O *D sky130_fd_sc_hd__nor3_2
*CAP
1 *1760:B 0.00018108
2 *1759:Y 0.00018108
3 *1760:A *1760:B 0.000186669
4 *235:10 *1760:B 5.52238e-05
*RES
1 *1759:Y *1760:B 22.0286 
*END

*D_NET *237 0.00107503
*CONN
*I *1762:C I *D sky130_fd_sc_hd__nor3_2
*I *1761:B1 I *D sky130_fd_sc_hd__o21a_2
*I *1760:Y O *D sky130_fd_sc_hd__nor2_2
*CAP
1 *1762:C 0.00015347
2 *1761:B1 0
3 *1760:Y 0.000242158
4 *237:10 0.000395627
5 *1762:C *1763:B 0
6 *237:10 *1763:B 0
7 *1740:B *1762:C 9.90431e-05
8 *1761:A2 *1762:C 7.92975e-05
9 *1762:A *1762:C 6.39262e-05
10 *1762:A *237:10 1.19402e-05
11 *216:8 *1762:C 2.95726e-05
12 *235:14 *237:10 0
*RES
1 *1760:Y *237:10 17.1036 
2 *237:10 *1761:B1 13.8 
3 *237:10 *1762:C 17.8179 
*END

*D_NET *238 0.00234599
*CONN
*I *1763:A I *D sky130_fd_sc_hd__nor2_2
*I *1873:B1 I *D sky130_fd_sc_hd__a21o_2
*I *1863:B1 I *D sky130_fd_sc_hd__a21oi_2
*I *1761:X O *D sky130_fd_sc_hd__o21a_2
*CAP
1 *1763:A 0.000145642
2 *1873:B1 0.000140035
3 *1863:B1 6.01646e-05
4 *1761:X 0
5 *238:10 0.000753694
6 *238:4 0.000699136
7 *1739:A *238:10 0.000175519
8 *1761:A2 *1763:A 7.43578e-06
9 *1761:A2 *238:10 6.4443e-05
10 *1762:A *238:10 8.08376e-05
11 *129:23 *1863:B1 7.62323e-05
12 *213:6 *238:10 0.000142856
13 *235:14 *238:10 0
*RES
1 *1761:X *238:4 9.3 
2 *238:4 *238:10 15.9286 
3 *238:10 *1863:B1 15.1571 
4 *238:10 *1873:B1 16.05 
5 *238:4 *1763:A 11.9071 
*END

*D_NET *239 0.000813413
*CONN
*I *1763:B I *D sky130_fd_sc_hd__nor2_2
*I *1762:Y O *D sky130_fd_sc_hd__nor3_2
*CAP
1 *1763:B 0.000163654
2 *1762:Y 0.000163654
3 *1763:B *240:8 0.000200406
4 *1740:B *1763:B 0.00014285
5 *1761:A2 *1763:B 0
6 *1762:C *1763:B 0
7 *216:8 *1763:B 0.00014285
8 *217:10 *1763:B 0
9 *237:10 *1763:B 0
*RES
1 *1762:Y *1763:B 32.1179 
*END

*D_NET *240 0.00273864
*CONN
*I *1764:B I *D sky130_fd_sc_hd__xor2_2
*I *1863:A2 I *D sky130_fd_sc_hd__a21oi_2
*I *1763:Y O *D sky130_fd_sc_hd__nor2_2
*CAP
1 *1764:B 0.000370688
2 *1863:A2 0.000125391
3 *1763:Y 0.000324476
4 *240:8 0.000820555
5 *1764:B *340:14 0
6 *1740:A *240:8 0
7 *1741:A *240:8 0.000172207
8 *1741:B *240:8 0
9 *1742:B *1764:B 9.15842e-06
10 *1742:B *240:8 4.66056e-05
11 *1751:B1 *1764:B 8.71438e-05
12 *1763:B *240:8 0.000200406
13 *1764:A *1764:B 0.000186215
14 *129:23 *1863:A2 0.000171624
15 *217:10 *240:8 0
16 *221:8 *1764:B 0.000224168
*RES
1 *1763:Y *240:8 20.9071 
2 *240:8 *1863:A2 16.8 
3 *240:8 *1764:B 14.3393 
*END

*D_NET *241 0.00634643
*CONN
*I *1819:A1 I *D sky130_fd_sc_hd__a21o_2
*I *1813:A I *D sky130_fd_sc_hd__xnor2_2
*I *1764:X O *D sky130_fd_sc_hd__xor2_2
*CAP
1 *1819:A1 0.000256103
2 *1813:A 0.000137663
3 *1764:X 0.00102964
4 *241:8 0.0014234
5 *1813:A *1818:B 1.56e-05
6 *1813:A *2087:A 9.71197e-05
7 *1819:A1 *1813:B 0.000142797
8 *1819:A1 *1815:B 0
9 *1819:A1 *1819:A2 0.00020042
10 *1819:A1 *1869:B1 0
11 *1819:A1 *1906:A1 4.87854e-05
12 *1819:A1 *1906:A2 0
13 *1819:A1 *2091:A 0
14 *1819:A1 *295:12 2.8266e-06
15 *1819:A1 *340:14 0
16 *1819:A1 *381:8 0
17 *241:8 *1813:B 5.59013e-05
18 *241:8 *2087:A 0.000150857
19 *241:8 *345:8 0
20 y[4] *241:8 5.50812e-05
21 *1670:B1 *241:8 0
22 *1728:B1 *241:8 0
23 *1744:B *241:8 0.000475342
24 *1747:A2 *241:8 0.000197984
25 *1814:A_N *241:8 9.34004e-05
26 *1814:B *241:8 6.39901e-05
27 *122:39 *241:8 0
28 *138:8 *241:8 5.64858e-05
29 *149:12 *241:8 7.15687e-05
30 *153:14 *241:8 0
31 *159:10 *241:8 0.000148189
32 *205:26 *241:8 1.17968e-05
33 *221:8 *241:8 0.00124479
34 *222:8 *241:8 0.000366682
*RES
1 *1764:X *241:8 43.3714 
2 *241:8 *1813:A 15.8893 
3 *241:8 *1819:A1 19.425 
*END

*D_NET *242 0.0017679
*CONN
*I *1796:A I *D sky130_fd_sc_hd__xnor2_2
*I *1820:A1 I *D sky130_fd_sc_hd__a21o_2
*I *1765:X O *D sky130_fd_sc_hd__a21bo_2
*CAP
1 *1796:A 0.000110284
2 *1820:A1 6.28669e-05
3 *1765:X 0.000417797
4 *242:10 0.000590948
5 *1796:A *1820:A2 4.27935e-05
6 *1820:A1 *1820:A2 5.33005e-05
7 *242:10 *1795:A 0.0002253
8 *242:10 *1795:B 0.000134738
9 *1707:B *242:10 0
10 *1821:A2 *242:10 0
11 *183:15 *242:10 0
12 *185:8 *242:10 0.000129868
*RES
1 *1765:X *242:10 28.1393 
2 *242:10 *1820:A1 10.2464 
3 *242:10 *1796:A 11.0857 
*END

*D_NET *243 0.00419672
*CONN
*I *1888:A1 I *D sky130_fd_sc_hd__a211o_4
*I *1831:A1 I *D sky130_fd_sc_hd__a21o_2
*I *1779:A I *D sky130_fd_sc_hd__xnor2_2
*I *1766:X O *D sky130_fd_sc_hd__a21bo_4
*CAP
1 *1888:A1 0.000387999
2 *1831:A1 9.16905e-05
3 *1779:A 0
4 *1766:X 0.000569387
5 *243:23 0.000645493
6 *243:14 0.00073519
7 *1831:A1 *1831:B1 1.58163e-05
8 *1888:A1 *1831:A2 2.41865e-05
9 *1888:A1 *1888:C1 0.000503272
10 *1888:A1 *254:12 2.14378e-05
11 *243:14 *1777:B 1.41029e-05
12 *243:14 *253:10 0.000331712
13 *243:14 *255:8 0.000154762
14 *243:14 *444:52 0
15 *243:14 *444:67 0
16 *243:23 *1831:A2 0.000322446
17 *243:23 *255:8 2.48938e-05
18 *1693:A1 *243:14 0.000128154
19 *1693:B1 *243:14 0.00015134
20 *1694:B *243:14 5.49544e-05
21 *1776:B *243:14 0
22 *168:21 *243:14 0
23 *170:14 *243:14 1.98839e-05
24 *171:10 *243:14 0
*RES
1 *1766:X *243:14 27.0679 
2 *243:14 *1779:A 13.8 
3 *243:14 *243:23 4.375 
4 *243:23 *1831:A1 14.7464 
5 *243:23 *1888:A1 22.6571 
*END

*D_NET *244 0.00288576
*CONN
*I *1775:A I *D sky130_fd_sc_hd__xnor2_2
*I *1774:A I *D sky130_fd_sc_hd__and2_2
*I *1767:Y O *D sky130_fd_sc_hd__nand2_2
*CAP
1 *1775:A 0.000140238
2 *1774:A 2.98339e-05
3 *1767:Y 0.000476793
4 *244:10 0.000646864
5 *1774:A *247:10 2.59355e-05
6 *1775:A *1773:A 0.000216771
7 *1775:A *1774:B 0.000107503
8 *1775:A *250:6 9.71197e-05
9 *244:10 *1771:B1 0.000250201
10 *244:10 *1772:A 6.8646e-06
11 *244:10 *1773:A 0.000341774
12 *244:10 *1774:B 4.46186e-06
13 *244:10 *1778:A 0
14 *244:10 *247:10 6.81083e-05
15 *244:10 *439:81 0.000196432
16 *1767:A *244:10 9.60875e-05
17 *1770:A1 *244:10 0
18 *1776:A *244:10 0
19 *1776:B *244:10 0
20 *2093:A *244:10 0.00018077
*RES
1 *1767:Y *244:10 26.3357 
2 *244:10 *1774:A 14.3357 
3 *244:10 *1775:A 18.0143 
*END

*D_NET *245 0.00183364
*CONN
*I *1835:A I *D sky130_fd_sc_hd__nor2_2
*I *1770:B1 I *D sky130_fd_sc_hd__a21oi_2
*I *1768:X O *D sky130_fd_sc_hd__and4_2
*CAP
1 *1835:A 8.6946e-05
2 *1770:B1 0.000136572
3 *1768:X 7.55277e-05
4 *245:8 0.000299046
5 *1770:B1 *1770:A2 1.33343e-05
6 *1770:B1 *485:8 5.33005e-05
7 *1835:A *1833:A 2.59355e-05
8 *1835:A *1835:B 5.33005e-05
9 *1835:A *440:86 0.000165269
10 *1835:A *440:99 5.66157e-05
11 *1835:A *485:10 3.17148e-05
12 *1835:A *485:69 0.000189455
13 *245:8 *440:86 0.000324167
14 *245:8 *485:10 0.000322453
*RES
1 *1768:X *245:8 17.8714 
2 *245:8 *1770:B1 15.9786 
3 *245:8 *1835:A 17.1929 
*END

*D_NET *246 0.00175764
*CONN
*I *1885:C I *D sky130_fd_sc_hd__and3_2
*I *1770:A2 I *D sky130_fd_sc_hd__a21oi_2
*I *1769:Y O *D sky130_fd_sc_hd__nand2_2
*CAP
1 *1885:C 9.56311e-05
2 *1770:A2 0.000248731
3 *1769:Y 6.34614e-05
4 *246:8 0.000407824
5 *1770:A2 *1769:B 3.30946e-05
6 *1770:A2 *309:12 0.000148189
7 *1770:A2 *441:61 6.2993e-05
8 *1770:A2 *485:80 7.61703e-05
9 *1770:A2 *495:18 1.81805e-05
10 *1770:A2 *495:20 9.56968e-05
11 *1885:C *1769:B 0.000137931
12 *1885:C *1834:A 2.61337e-05
13 *1885:C *1837:B 1.76135e-05
14 *1885:C *308:8 1.17968e-05
15 *1885:C *309:12 0.00012401
16 *1885:C *309:18 1.77672e-05
17 *246:8 *1769:A 9.7659e-05
18 *246:8 *1832:A2 1.56e-05
19 *246:8 *495:18 4.58194e-05
20 *1770:B1 *1770:A2 1.33343e-05
*RES
1 *1769:Y *246:8 15.5679 
2 *246:8 *1770:A2 20.0589 
3 *246:8 *1885:C 16.6571 
*END

*D_NET *247 0.00124316
*CONN
*I *1772:C I *D sky130_fd_sc_hd__and3_2
*I *1771:B1 I *D sky130_fd_sc_hd__a21oi_2
*I *1770:Y O *D sky130_fd_sc_hd__a21oi_2
*CAP
1 *1772:C 0
2 *1771:B1 0.000103984
3 *1770:Y 0.000257538
4 *247:10 0.000361522
5 *1771:B1 *1772:A 0.000175875
6 *1771:B1 *1778:A 0
7 *247:10 *1778:A 0
8 *1774:A *247:10 2.59355e-05
9 *244:10 *1771:B1 0.000250201
10 *244:10 *247:10 6.81083e-05
*RES
1 *1770:Y *247:10 17.0143 
2 *247:10 *1771:B1 17.4964 
3 *247:10 *1772:C 13.8 
*END

*D_NET *248 0.00117453
*CONN
*I *1773:A I *D sky130_fd_sc_hd__nor2_2
*I *1771:Y O *D sky130_fd_sc_hd__a21oi_2
*CAP
1 *1773:A 0.000176895
2 *1771:Y 0.000176895
3 *1773:A *249:12 0.000181368
4 *1770:A1 *1773:A 8.08283e-05
5 *1775:A *1773:A 0.000216771
6 *244:10 *1773:A 0.000341774
*RES
1 *1771:Y *1773:A 34.7071 
*END

*D_NET *249 0.00194981
*CONN
*I *1835:B I *D sky130_fd_sc_hd__nor2_2
*I *1773:B I *D sky130_fd_sc_hd__nor2_2
*I *1772:X O *D sky130_fd_sc_hd__and3_2
*CAP
1 *1835:B 0.000357221
2 *1773:B 0
3 *1772:X 0.000214051
4 *249:12 0.000571272
5 *1835:B *1833:C 5.33005e-05
6 *1835:B *1833:D 0.000139907
7 *1835:B *250:6 5.33334e-05
8 *1835:B *485:69 5.33005e-05
9 *1835:B *485:80 5.33005e-05
10 *249:12 *1772:B 1.05901e-05
11 *249:12 *495:18 2.8266e-06
12 *249:12 *495:20 7.85979e-05
13 *1770:A1 *249:12 0.000127439
14 *1773:A *249:12 0.000181368
15 *1835:A *1835:B 5.33005e-05
*RES
1 *1772:X *249:12 23.6214 
2 *249:12 *1773:B 9.3 
3 *249:12 *1835:B 15.6214 
*END

*D_NET *250 0.000893342
*CONN
*I *1775:B I *D sky130_fd_sc_hd__xnor2_2
*I *1774:B I *D sky130_fd_sc_hd__and2_2
*I *1773:Y O *D sky130_fd_sc_hd__nor2_2
*CAP
1 *1775:B 0
2 *1774:B 0.000145709
3 *1773:Y 0.000169753
4 *250:6 0.000315462
5 *1774:B *251:10 0
6 *1774:B *252:8 0
7 *1775:A *1774:B 0.000107503
8 *1775:A *250:6 9.71197e-05
9 *1835:B *250:6 5.33334e-05
10 *244:10 *1774:B 4.46186e-06
*RES
1 *1773:Y *250:6 12.3 
2 *250:6 *1774:B 21.3893 
3 *250:6 *1775:B 9.3 
*END

*D_NET *251 0.00203826
*CONN
*I *1838:A I *D sky130_fd_sc_hd__and2_2
*I *1889:A1 I *D sky130_fd_sc_hd__o21a_4
*I *1839:A I *D sky130_fd_sc_hd__xor2_2
*I *1774:X O *D sky130_fd_sc_hd__and2_2
*CAP
1 *1838:A 0.000238681
2 *1889:A1 0
3 *1839:A 0
4 *1774:X 0.000431166
5 *251:19 0.000350455
6 *251:10 0.00054294
7 *1838:A *1838:B 0.00018591
8 *1838:A *1840:B 0
9 *1838:A *1887:A 0
10 *1838:A *1888:B1 0
11 *1838:A *1889:B1 6.75007e-05
12 *1838:A *1913:B 3.67257e-05
13 *1838:A *313:21 9.74684e-05
14 *251:10 *1769:B 0
15 *251:10 *252:8 0
16 *251:19 *1839:B 8.16036e-05
17 *251:19 *1840:B 0
18 *251:19 *313:21 5.80706e-06
19 *1774:B *251:10 0
*RES
1 *1774:X *251:10 21.1393 
2 *251:10 *1839:A 13.8 
3 *251:10 *251:19 2.25 
4 *251:19 *1889:A1 13.8 
5 *251:19 *1838:A 19.7286 
*END

*D_NET *252 0.000590761
*CONN
*I *1777:A I *D sky130_fd_sc_hd__nor2_2
*I *1778:A I *D sky130_fd_sc_hd__xor2_2
*I *1775:Y O *D sky130_fd_sc_hd__xnor2_2
*CAP
1 *1777:A 0
2 *1778:A 0.00015575
3 *1775:Y 0.000139631
4 *252:8 0.000295381
5 *1778:A *1772:A 0
6 *1778:A *1777:B 0
7 *1778:A *253:10 0
8 *1771:B1 *1778:A 0
9 *1774:B *252:8 0
10 *244:10 *1778:A 0
11 *247:10 *1778:A 0
12 *251:10 *252:8 0
*RES
1 *1775:Y *252:8 16.3536 
2 *252:8 *1778:A 16.5857 
3 *252:8 *1777:A 13.8 
*END

*D_NET *253 0.00170163
*CONN
*I *1777:B I *D sky130_fd_sc_hd__nor2_2
*I *1778:B I *D sky130_fd_sc_hd__xor2_2
*I *1776:X O *D sky130_fd_sc_hd__and2_2
*CAP
1 *1777:B 0.0001432
2 *1778:B 0
3 *1776:X 0.000420321
4 *253:10 0.00056352
5 *1777:B *254:12 7.57312e-05
6 *1777:B *255:8 0.000153047
7 *1778:A *1777:B 0
8 *1778:A *253:10 0
9 *243:14 *1777:B 1.41029e-05
10 *243:14 *253:10 0.000331712
*RES
1 *1776:X *253:10 20.3536 
2 *253:10 *1778:B 4.5 
3 *253:10 *1777:B 17.4071 
*END

*D_NET *254 0.0028493
*CONN
*I *1888:C1 I *D sky130_fd_sc_hd__a211o_4
*I *1831:B1 I *D sky130_fd_sc_hd__a21o_2
*I *1777:Y O *D sky130_fd_sc_hd__nor2_2
*CAP
1 *1888:C1 0.000269651
2 *1831:B1 9.69017e-05
3 *1777:Y 0.000293964
4 *254:12 0.000660517
5 *1831:B1 *1840:A 5.20669e-05
6 *1888:C1 *1840:A 0.000322453
7 *1888:C1 *1888:A2 7.57312e-05
8 *1888:C1 *1889:B1 0
9 *1888:C1 *506:10 0.000141729
10 *254:12 *1831:A2 0.000320031
11 *1777:B *254:12 7.57312e-05
12 *1831:A1 *1831:B1 1.58163e-05
13 *1888:A1 *1888:C1 0.000503272
14 *1888:A1 *254:12 2.14378e-05
*RES
1 *1777:Y *254:12 20.3714 
2 *254:12 *1831:B1 15.7107 
3 *254:12 *1888:C1 23.2286 
*END

*D_NET *255 0.00126967
*CONN
*I *1831:A2 I *D sky130_fd_sc_hd__a21o_2
*I *1779:B I *D sky130_fd_sc_hd__xnor2_2
*I *1778:X O *D sky130_fd_sc_hd__xor2_2
*CAP
1 *1831:A2 8.79437e-05
2 *1779:B 0
3 *1778:X 4.72097e-05
4 *255:8 0.000135153
5 *1777:B *255:8 0.000153047
6 *1888:A1 *1831:A2 2.41865e-05
7 *243:14 *255:8 0.000154762
8 *243:23 *1831:A2 0.000322446
9 *243:23 *255:8 2.48938e-05
10 *254:12 *1831:A2 0.000320031
*RES
1 *1778:X *255:8 16.05 
2 *255:8 *1779:B 13.8 
3 *255:8 *1831:A2 18.175 
*END

*D_NET *256 0.00484381
*CONN
*I *1794:A I *D sky130_fd_sc_hd__nor2_2
*I *1795:A I *D sky130_fd_sc_hd__xor2_2
*I *1779:Y O *D sky130_fd_sc_hd__xnor2_2
*CAP
1 *1794:A 0.000102737
2 *1795:A 0.000184211
3 *1779:Y 0.00152891
4 *256:14 0.00181586
5 *1794:A *1794:B 3.46775e-05
6 *1794:A *1820:B1 4.33174e-05
7 *1795:A *1793:B 0
8 *1795:A *1795:B 3.97543e-05
9 *1795:A *1820:B1 9.10431e-06
10 *1795:A *296:14 9.01334e-05
11 *256:14 *1700:A2 2.50158e-05
12 *256:14 *1820:B1 4.53889e-05
13 *256:14 *297:10 9.60939e-05
14 *1700:B1 *256:14 2.14757e-05
15 *1700:B2 *256:14 0.000122413
16 *1702:B *256:14 1.39726e-05
17 *1703:B1 *256:14 3.67257e-05
18 *1821:A2 *256:14 0.000154529
19 *178:8 *256:14 0.000226513
20 *181:12 *256:14 2.76766e-05
21 *242:10 *1795:A 0.0002253
*RES
1 *1779:Y *256:14 31.2643 
2 *256:14 *1795:A 23.2821 
3 *256:14 *1794:A 11.4964 
*END

*D_NET *257 0.002923
*CONN
*I *1786:A I *D sky130_fd_sc_hd__nand2_2
*I *1787:A I *D sky130_fd_sc_hd__xnor2_2
*I *1780:Y O *D sky130_fd_sc_hd__nand2_2
*CAP
1 *1786:A 0.000115016
2 *1787:A 0
3 *1780:Y 0.000852003
4 *257:10 0.000967018
5 *1786:A *1786:B 0.000166976
6 *1786:A *1842:B 2.89114e-05
7 *1786:A *2094:A 0
8 *1786:A *297:10 0
9 *257:10 *1696:B 0
10 *257:10 *1786:B 3.51442e-05
11 *257:10 *1789:A 0
12 *257:10 *262:8 0.000179656
13 *257:10 *264:8 0
14 *257:10 *297:10 0
15 *257:10 *443:112 6.29917e-05
16 *257:10 *443:126 0.000111585
17 *1701:C *257:10 3.48705e-05
18 *1702:B *257:10 0.000139907
19 *1702:C *257:10 2.47833e-05
20 *1703:B1 *257:10 5.03694e-05
21 *1780:B *257:10 0.00014183
22 *1788:A1 *257:10 1.19402e-05
23 *1821:A1 *257:10 0
24 *181:12 *257:10 0
*RES
1 *1780:Y *257:10 30.9429 
2 *257:10 *1787:A 13.8 
3 *257:10 *1786:A 16.5857 
*END

*D_NET *258 0.000909756
*CONN
*I *1783:B1 I *D sky130_fd_sc_hd__a21o_2
*I *1826:B1_N I *D sky130_fd_sc_hd__o21bai_2
*I *1781:X O *D sky130_fd_sc_hd__and4_2
*CAP
1 *1783:B1 0.000101123
2 *1826:B1_N 2.61003e-05
3 *1781:X 0.000112167
4 *258:10 0.00023939
5 *1783:B1 *1781:C 0.000219193
6 *1783:B1 *445:73 0
7 *1826:B1_N *1842:B 2.89114e-05
8 *258:10 *1697:A 5.71472e-05
9 *258:10 *1781:C 0.000125724
10 *258:10 *1826:A2 0
*RES
1 *1781:X *258:10 15.9786 
2 *258:10 *1826:B1_N 14.3357 
3 *258:10 *1783:B1 16.6571 
*END

*D_NET *259 0.00214325
*CONN
*I *1911:A1 I *D sky130_fd_sc_hd__a21o_2
*I *1879:C I *D sky130_fd_sc_hd__and3_2
*I *1783:A2 I *D sky130_fd_sc_hd__a21o_2
*I *1825:A1 I *D sky130_fd_sc_hd__o21a_2
*I *1782:Y O *D sky130_fd_sc_hd__nand2_2
*CAP
1 *1911:A1 0.000137735
2 *1879:C 0
3 *1783:A2 7.30854e-05
4 *1825:A1 0
5 *1782:Y 3.12159e-05
6 *259:34 0.000458249
7 *259:6 0.000424816
8 *1783:A2 *1781:C 1.76039e-05
9 *1783:A2 *1823:A1 5.58941e-05
10 *1783:A2 *444:76 3.98524e-05
11 *1783:A2 *506:10 9.25014e-06
12 *1783:A2 *512:33 4.66203e-05
13 *1911:A1 *1824:B 0
14 *1911:A1 *1880:B 7.83587e-05
15 *1911:A1 *1911:A2 9.90367e-05
16 *1911:A1 *1912:B 1.74352e-05
17 *259:6 *1782:B 1.24368e-05
18 *259:6 *512:33 5.33005e-05
19 *259:34 *1825:B1 5.71472e-05
20 *259:34 *1827:A 1.33343e-05
21 *259:34 *1880:B 1.02504e-05
22 *259:34 *301:8 0.000117621
23 *259:34 *445:73 0.000197977
24 *259:34 *512:33 8.46829e-05
25 *259:34 *514:10 5.39648e-05
26 *259:34 *514:14 5.33786e-05
*RES
1 *1782:Y *259:6 9.83571 
2 *259:6 *1825:A1 9.3 
3 *259:6 *1783:A2 20.2464 
4 *259:6 *259:34 12.5714 
5 *259:34 *1879:C 13.8 
6 *259:34 *1911:A1 16.1929 
*END

*D_NET *260 0.00157979
*CONN
*I *1826:A1 I *D sky130_fd_sc_hd__o21bai_2
*I *1785:A I *D sky130_fd_sc_hd__xor2_2
*I *1783:X O *D sky130_fd_sc_hd__a21o_2
*CAP
1 *1826:A1 0
2 *1785:A 0.000138965
3 *1783:X 0.000286312
4 *260:10 0.000425276
5 *1785:A *1826:A2 6.12813e-05
6 *1785:A *445:73 8.91726e-05
7 *1785:A *512:68 1.3142e-05
8 *1785:A *514:14 0.000342502
9 *260:10 *445:73 7.252e-05
10 *260:10 *514:14 0.000150618
*RES
1 *1783:X *260:10 18.3357 
2 *260:10 *1785:A 18.4786 
3 *260:10 *1826:A1 13.8 
*END

*D_NET *261 0.000995141
*CONN
*I *1785:B I *D sky130_fd_sc_hd__xor2_2
*I *1826:A2 I *D sky130_fd_sc_hd__o21bai_2
*I *1784:Y O *D sky130_fd_sc_hd__nand2_2
*CAP
1 *1785:B 4.96269e-05
2 *1826:A2 0.000232819
3 *1784:Y 2.08056e-05
4 *261:6 0.000303251
5 *1785:B *1784:B 9.90431e-05
6 *1826:A2 *445:51 0
7 *1826:A2 *445:73 0.00017309
8 *261:6 *1784:B 5.52238e-05
9 *1783:A1 *1826:A2 0
10 *1785:A *1826:A2 6.12813e-05
11 *258:10 *1826:A2 0
*RES
1 *1784:Y *261:6 9.83571 
2 *261:6 *1826:A2 22.9786 
3 *261:6 *1785:B 1.36607 
*END

*D_NET *262 0.000744012
*CONN
*I *1786:B I *D sky130_fd_sc_hd__nand2_2
*I *1787:B I *D sky130_fd_sc_hd__xnor2_2
*I *1785:X O *D sky130_fd_sc_hd__xor2_2
*CAP
1 *1786:B 9.45222e-05
2 *1787:B 0
3 *1785:X 8.65956e-05
4 *262:8 0.000181118
5 *1786:B *514:14 0
6 *262:8 *1696:B 0
7 *262:8 *512:68 0
8 *1786:A *1786:B 0.000166976
9 *257:10 *1786:B 3.51442e-05
10 *257:10 *262:8 0.000179656
*RES
1 *1785:X *262:8 16.05 
2 *262:8 *1787:B 13.8 
3 *262:8 *1786:B 16.3536 
*END

*D_NET *263 0.000769356
*CONN
*I *1881:A1 I *D sky130_fd_sc_hd__a21oi_2
*I *1829:A I *D sky130_fd_sc_hd__xnor2_2
*I *1786:Y O *D sky130_fd_sc_hd__nand2_2
*CAP
1 *1881:A1 0
2 *1829:A 0.000133299
3 *1786:Y 0.000106564
4 *263:8 0.000239863
5 *1829:A *1830:B 0
6 *1829:A *1881:B1 1.37292e-05
7 *1829:A *356:10 9.57064e-05
8 *263:8 *1842:B 6.97409e-05
9 *263:8 *1881:B1 5.52238e-05
10 *263:8 *2094:A 0
11 *263:8 *356:10 5.52302e-05
*RES
1 *1786:Y *263:8 11.9071 
2 *263:8 *1829:A 21.1571 
3 *263:8 *1881:A1 9.3 
*END

*D_NET *264 0.000648404
*CONN
*I *1790:A I *D sky130_fd_sc_hd__and2_2
*I *1789:A I *D sky130_fd_sc_hd__nor2_2
*I *1787:Y O *D sky130_fd_sc_hd__xnor2_2
*CAP
1 *1790:A 0
2 *1789:A 0.000135261
3 *1787:Y 8.50351e-05
4 *264:8 0.000220296
5 *1789:A *297:10 0.000109809
6 *264:8 *297:10 9.80029e-05
7 *257:10 *1789:A 0
8 *257:10 *264:8 0
*RES
1 *1787:Y *264:8 16.05 
2 *264:8 *1789:A 16.8893 
3 *264:8 *1790:A 13.8 
*END

*D_NET *265 0.00143804
*CONN
*I *1790:B I *D sky130_fd_sc_hd__and2_2
*I *1789:B I *D sky130_fd_sc_hd__nor2_2
*I *1788:X O *D sky130_fd_sc_hd__o21ba_2
*CAP
1 *1790:B 0.000125463
2 *1789:B 0
3 *1788:X 0.000255386
4 *265:10 0.000380849
5 *1790:B *1791:B 0
6 *1790:B *1821:B1 5.80706e-06
7 *1790:B *297:10 0.000167691
8 *265:10 *1793:A 0
9 *265:10 *1821:B1 0.000105572
10 *265:10 *297:10 0.000175512
11 *1704:A *265:10 9.90431e-05
12 *1821:A1 *265:10 6.74911e-05
13 *1821:A2 *265:10 0
14 *180:8 *265:10 5.52238e-05
*RES
1 *1788:X *265:10 19.5321 
2 *265:10 *1789:B 13.8 
3 *265:10 *1790:B 16.5857 
*END

*D_NET *266 0.000508959
*CONN
*I *1791:A I *D sky130_fd_sc_hd__nor2_2
*I *1821:B1 I *D sky130_fd_sc_hd__a21oi_2
*I *1789:Y O *D sky130_fd_sc_hd__nor2_2
*CAP
1 *1791:A 8.61506e-05
2 *1821:B1 0.000112639
3 *1789:Y 0
4 *266:4 0.00019879
5 *1821:B1 *1793:A 0
6 *1790:B *1821:B1 5.80706e-06
7 *265:10 *1821:B1 0.000105572
*RES
1 *1789:Y *266:4 9.3 
2 *266:4 *1821:B1 20.8536 
3 *266:4 *1791:A 10.6571 
*END

*D_NET *267 0.000893475
*CONN
*I *1822:A I *D sky130_fd_sc_hd__or2_2
*I *1791:B I *D sky130_fd_sc_hd__nor2_2
*I *1790:X O *D sky130_fd_sc_hd__and2_2
*CAP
1 *1822:A 7.91956e-05
2 *1791:B 0.000322688
3 *1790:X 0.000401884
4 *1791:B *296:14 0
5 *1822:A *1830:B 0
6 *1822:A *2094:A 5.80706e-06
7 *1822:A *297:10 8.39e-05
8 *1790:B *1791:B 0
*RES
1 *1790:X *1791:B 31.8321 
2 *1790:X *1822:A 29.5464 
*END

*D_NET *268 0.000352951
*CONN
*I *1793:A I *D sky130_fd_sc_hd__xor2_2
*I *1791:Y O *D sky130_fd_sc_hd__nor2_2
*CAP
1 *1793:A 0.000169784
2 *1791:Y 0.000169784
3 *1793:A *1793:B 4.1331e-06
4 *1793:A *296:14 0
5 *1821:A2 *1793:A 9.25014e-06
6 *1821:B1 *1793:A 0
7 *265:10 *1793:A 0
*RES
1 *1791:Y *1793:A 30.3857 
*END

*D_NET *269 0.000660881
*CONN
*I *1793:B I *D sky130_fd_sc_hd__xor2_2
*I *1792:Y O *D sky130_fd_sc_hd__nand2_2
*CAP
1 *1793:B 0.000285066
2 *1792:Y 0.000285066
3 *1793:B *1820:B1 6.65398e-05
4 *1793:B *296:14 2.00751e-05
5 *1793:A *1793:B 4.1331e-06
6 *1795:A *1793:B 0
7 *1821:A2 *1793:B 0
*RES
1 *1792:Y *1793:B 23.925 
*END

*D_NET *270 0.000900846
*CONN
*I *1794:B I *D sky130_fd_sc_hd__nor2_2
*I *1795:B I *D sky130_fd_sc_hd__xor2_2
*I *1793:X O *D sky130_fd_sc_hd__xor2_2
*CAP
1 *1794:B 7.43313e-05
2 *1795:B 0.000221985
3 *1793:X 0
4 *270:4 0.000296316
5 *1794:B *1820:B1 9.90431e-05
6 *1795:B *1796:B 0
7 *1794:A *1794:B 3.46775e-05
8 *1795:A *1795:B 3.97543e-05
9 *242:10 *1795:B 0.000134738
*RES
1 *1793:X *270:4 9.3 
2 *270:4 *1795:B 13.6786 
3 *270:4 *1794:B 11.0857 
*END

*D_NET *271 0.000991067
*CONN
*I *1820:B1 I *D sky130_fd_sc_hd__a21o_2
*I *1794:Y O *D sky130_fd_sc_hd__nor2_2
*CAP
1 *1820:B1 0.000313064
2 *1794:Y 0.000313064
3 *1820:B1 *296:14 0.000101545
4 *1793:B *1820:B1 6.65398e-05
5 *1794:A *1820:B1 4.33174e-05
6 *1794:B *1820:B1 9.90431e-05
7 *1795:A *1820:B1 9.10431e-06
8 *256:14 *1820:B1 4.53889e-05
*RES
1 *1794:Y *1820:B1 32.6536 
*END

*D_NET *272 0.000513312
*CONN
*I *1820:A2 I *D sky130_fd_sc_hd__a21o_2
*I *1796:B I *D sky130_fd_sc_hd__xnor2_2
*I *1795:X O *D sky130_fd_sc_hd__xor2_2
*CAP
1 *1820:A2 4.60868e-05
2 *1796:B 0.000208609
3 *1795:X 0.000162522
4 *1795:B *1796:B 0
5 *1796:A *1820:A2 4.27935e-05
6 *1820:A1 *1820:A2 5.33005e-05
*RES
1 *1795:X *1796:B 30.3857 
2 *1796:B *1820:A2 19.5464 
*END

*D_NET *273 0.00625962
*CONN
*I *1812:A I *D sky130_fd_sc_hd__xor2_2
*I *1811:A I *D sky130_fd_sc_hd__nor2_2
*I *1796:Y O *D sky130_fd_sc_hd__xnor2_2
*CAP
1 *1812:A 0.000759728
2 *1811:A 0.000347359
3 *1796:Y 0.00159128
4 *273:12 0.00269837
5 *1811:A *281:10 3.92854e-05
6 *1811:A *352:13 4.35048e-05
7 *1812:A *1810:A 0.000123673
8 *1812:A *1812:B 9.90431e-05
9 *1812:A *283:6 5.33433e-05
10 *273:12 *1799:B 2.89016e-05
11 *273:12 *1809:A 7.92879e-05
12 *273:12 *1846:A2 6.59012e-07
13 *273:12 *1846:B1 2.68207e-05
14 *273:12 *1846:B2 1.03968e-05
15 *273:12 *277:10 0.000181803
16 *273:12 *281:10 1.41029e-05
17 *273:12 *281:19 9.56872e-05
18 *273:12 *352:13 1.69115e-05
19 *273:12 *469:42 1.98839e-05
20 *1800:A1 *273:12 2.95726e-05
21 *1805:B *1811:A 0
*RES
1 *1796:Y *273:12 34.4607 
2 *273:12 *1811:A 19.675 
3 *273:12 *1812:A 24.6393 
*END

*D_NET *274 0.00231209
*CONN
*I *1845:A1 I *D sky130_fd_sc_hd__a21o_2
*I *1844:A I *D sky130_fd_sc_hd__or2_2
*I *1810:A I *D sky130_fd_sc_hd__xnor2_2
*I *1797:Y O *D sky130_fd_sc_hd__o21ai_2
*CAP
1 *1845:A1 9.87495e-05
2 *1844:A 0.000200558
3 *1810:A 9.25582e-05
4 *1797:Y 0.000392923
5 *274:21 0.000493955
6 *274:8 0.000680129
7 *1844:A *1845:B1 8.05752e-05
8 *1845:A1 *1845:B1 2.89114e-05
9 *1845:A1 *1853:A 1.03968e-05
10 *274:8 *1809:B 0
11 *274:8 *1819:B1 0
12 *274:8 *284:10 0
13 *274:8 *352:11 0
14 *274:21 *1809:B 0
15 *274:21 *1810:B 0
16 *274:21 *1819:B1 0
17 *274:21 *1845:A2 0
18 *274:21 *285:10 0.000109661
19 *1812:A *1810:A 0.000123673
*RES
1 *1797:Y *274:8 20.6036 
2 *274:8 *1810:A 15.9786 
3 *274:8 *274:21 8.875 
4 *274:21 *1844:A 11.9071 
5 *274:21 *1845:A1 10.6571 
*END

*D_NET *275 0.00206188
*CONN
*I *1850:A I *D sky130_fd_sc_hd__or3_2
*I *1849:A1 I *D sky130_fd_sc_hd__o21ai_2
*I *1800:B1 I *D sky130_fd_sc_hd__a21oi_2
*I *1798:X O *D sky130_fd_sc_hd__and4_2
*CAP
1 *1850:A 0
2 *1849:A1 7.11034e-05
3 *1800:B1 0
4 *1798:X 0.000343264
5 *275:25 0.00032819
6 *275:10 0.00060035
7 *1849:A1 *1849:A2 0
8 *1849:A1 *1851:A 9.4736e-05
9 *1849:A1 *383:16 0.000199698
10 *275:10 *1801:A1 4.53889e-05
11 *275:10 *1801:A2 3.69047e-06
12 *275:10 *1803:A 7.49387e-06
13 *275:10 *279:19 0
14 *275:10 *470:37 0.000123295
15 *275:25 *1849:A2 0
16 *275:25 *1850:B 2.89016e-05
17 *275:25 *1851:A 1.33343e-05
18 *275:25 *1851:B 0
19 *275:25 *1896:B 3.14193e-05
20 *275:25 *279:19 0
21 *275:25 *383:16 0.000116891
22 *275:25 *470:37 4.80729e-05
23 *1800:A1 *275:10 6.05161e-06
*RES
1 *1798:X *275:10 18.4429 
2 *275:10 *1800:B1 13.8 
3 *275:10 *275:25 10.5536 
4 *275:25 *1849:A1 20.8536 
5 *275:25 *1850:A 9.3 
*END

*D_NET *276 0.00244026
*CONN
*I *1918:A1 I *D sky130_fd_sc_hd__a21o_2
*I *1848:A1 I *D sky130_fd_sc_hd__o21a_2
*I *1895:C I *D sky130_fd_sc_hd__and3_2
*I *1800:A2 I *D sky130_fd_sc_hd__a21oi_2
*I *1799:Y O *D sky130_fd_sc_hd__nand2_2
*CAP
1 *1918:A1 0.000137629
2 *1848:A1 0.000105243
3 *1895:C 3.80711e-05
4 *1800:A2 7.77918e-05
5 *1799:Y 8.01715e-05
6 *276:30 0.000290257
7 *276:19 0.00016424
8 *276:8 0.000236747
9 *1800:A2 *1848:B1 1.91414e-05
10 *1800:A2 *383:16 5.9483e-05
11 *1800:A2 *470:24 0.00010326
12 *1848:A1 *1847:A 5.52238e-05
13 *1848:A1 *1847:B 0.00014231
14 *1848:A1 *1848:B1 9.91086e-06
15 *1895:C *470:16 1.07719e-05
16 *1918:A1 *1848:B1 1.28329e-05
17 *1918:A1 *1918:B1 0
18 *1918:A1 *319:10 2.59355e-05
19 *1918:A1 *470:10 0.000166983
20 *1918:A1 *470:16 5.75911e-05
21 *276:19 *1848:B1 5.64115e-05
22 *276:19 *383:16 6.07532e-05
23 *276:19 *470:16 0.000106403
24 *276:19 *470:24 0.000166976
25 *276:30 *1848:B1 7.1325e-05
26 *276:30 *470:16 0.000151365
27 *1800:A1 *1800:A2 3.34295e-05
*RES
1 *1799:Y *276:8 14.7464 
2 *276:8 *1800:A2 16.05 
3 *276:8 *276:19 3.46429 
4 *276:19 *1895:C 14.3357 
5 *276:19 *276:30 1.95536 
6 *276:30 *1848:A1 16.2375 
7 *276:30 *1918:A1 17.1839 
*END

*D_NET *277 0.0009554
*CONN
*I *1801:B1 I *D sky130_fd_sc_hd__a21oi_2
*I *1802:C I *D sky130_fd_sc_hd__and3_2
*I *1800:Y O *D sky130_fd_sc_hd__a21oi_2
*CAP
1 *1801:B1 0
2 *1802:C 6.49882e-05
3 *1800:Y 0.000118899
4 *277:10 0.000183887
5 *1802:C *1801:A1 0.000129868
6 *1802:C *383:16 1.41029e-05
7 *1802:C *452:51 0
8 *1802:C *469:32 3.92757e-05
9 *277:10 *383:16 7.50505e-05
10 *277:10 *470:37 4.35452e-05
11 *1800:A1 *1802:C 4.46186e-06
12 *1800:A1 *277:10 9.95193e-05
13 *273:12 *277:10 0.000181803
*RES
1 *1800:Y *277:10 17.5143 
2 *277:10 *1802:C 15.7464 
3 *277:10 *1801:B1 13.8 
*END

*D_NET *278 0.000313452
*CONN
*I *1803:A I *D sky130_fd_sc_hd__nor2_2
*I *1801:Y O *D sky130_fd_sc_hd__a21oi_2
*CAP
1 *1803:A 0.000118187
2 *1801:Y 0.000118187
3 *1803:A *1801:A1 1.24368e-05
4 *1803:A *1801:A2 5.71472e-05
5 *275:10 *1803:A 7.49387e-06
*RES
1 *1801:Y *1803:A 20.8143 
*END

*D_NET *279 0.0028521
*CONN
*I *1849:A2 I *D sky130_fd_sc_hd__o21ai_2
*I *1850:B I *D sky130_fd_sc_hd__or3_2
*I *1803:B I *D sky130_fd_sc_hd__nor2_2
*I *1802:X O *D sky130_fd_sc_hd__and3_2
*CAP
1 *1849:A2 0.000283616
2 *1850:B 0.000157387
3 *1803:B 0
4 *1802:X 0.000292498
5 *279:19 0.000825367
6 *279:10 0.000676862
7 *1849:A2 *1851:A 0
8 *1849:A2 *1896:B 6.5185e-05
9 *1849:A2 *1898:C1 0
10 *1849:A2 *383:16 0
11 *1850:B *1851:A 1.02936e-05
12 *1850:B *1851:B 0.00014285
13 *279:10 *1717:A 0.000183726
14 *279:10 *470:39 0
15 *279:19 *1804:B1 0
16 *279:19 *470:37 0
17 *1805:A *279:10 0.000128154
18 *1805:A *279:19 1.02504e-05
19 *1849:A1 *1849:A2 0
20 *191:23 *279:10 4.70078e-05
21 *275:10 *279:19 0
22 *275:25 *1849:A2 0
23 *275:25 *1850:B 2.89016e-05
24 *275:25 *279:19 0
*RES
1 *1802:X *279:10 18.4429 
2 *279:10 *1803:B 13.8 
3 *279:10 *279:19 6.80357 
4 *279:19 *1850:B 15.9786 
5 *279:19 *1849:A2 18.7286 
*END

*D_NET *280 0.000951305
*CONN
*I *1805:C I *D sky130_fd_sc_hd__nor3_2
*I *1804:B1 I *D sky130_fd_sc_hd__o21a_2
*I *1803:Y O *D sky130_fd_sc_hd__nor2_2
*CAP
1 *1805:C 8.57283e-05
2 *1804:B1 0.000123525
3 *1803:Y 0.000105039
4 *280:6 0.000314292
5 *1804:B1 *281:19 0
6 *1805:A *1804:B1 0
7 *1805:A *280:6 0.000144773
8 *1805:B *1804:B1 0.000177948
9 *279:19 *1804:B1 0
*RES
1 *1803:Y *280:6 11.4786 
2 *280:6 *1804:B1 21.1571 
3 *280:6 *1805:C 10.6571 
*END

*D_NET *281 0.00212632
*CONN
*I *1897:A1 I *D sky130_fd_sc_hd__o21ai_2
*I *1852:A I *D sky130_fd_sc_hd__xor2_2
*I *1898:A1 I *D sky130_fd_sc_hd__o211ai_2
*I *1806:A I *D sky130_fd_sc_hd__or2_2
*I *1804:X O *D sky130_fd_sc_hd__o21a_2
*CAP
1 *1897:A1 8.24021e-05
2 *1852:A 0
3 *1898:A1 0
4 *1806:A 0
5 *1804:X 0.000283812
6 *281:30 0.000185009
7 *281:19 0.000483015
8 *281:10 0.000664219
9 *1897:A1 *1852:B 4.95372e-05
10 *1897:A1 *1897:A2 5.52238e-05
11 *281:19 *1809:A 0
12 *281:19 *1897:A2 5.80706e-06
13 *281:19 *320:10 8.15939e-05
14 *281:19 *352:13 0
15 *281:30 *1897:A2 8.66228e-05
16 *281:30 *352:13 0
17 *1804:B1 *281:19 0
18 *1805:B *281:10 0
19 *1805:B *281:19 0
20 *1811:A *281:10 3.92854e-05
21 *273:12 *281:10 1.41029e-05
22 *273:12 *281:19 9.56872e-05
*RES
1 *1804:X *281:10 17.7286 
2 *281:10 *1806:A 13.8 
3 *281:10 *281:19 8.01786 
4 *281:19 *1898:A1 13.8 
5 *281:19 *281:30 6.75 
6 *281:30 *1852:A 9.3 
7 *281:30 *1897:A1 11.0857 
*END

*D_NET *282 6.94209e-05
*CONN
*I *1806:B I *D sky130_fd_sc_hd__or2_2
*I *1805:Y O *D sky130_fd_sc_hd__nor3_2
*CAP
1 *1806:B 3.47105e-05
2 *1805:Y 3.47105e-05
*RES
1 *1805:Y *1806:B 19.1357 
*END

*D_NET *283 0.000605206
*CONN
*I *1808:A I *D sky130_fd_sc_hd__nor2_2
*I *1809:A I *D sky130_fd_sc_hd__xor2_2
*I *1806:X O *D sky130_fd_sc_hd__or2_2
*CAP
1 *1808:A 0
2 *1809:A 7.84719e-05
3 *1806:X 4.39475e-05
4 *283:6 0.000122419
5 *1809:A *352:13 0.000227736
6 *1812:A *283:6 5.33433e-05
7 *273:12 *1809:A 7.92879e-05
8 *281:19 *1809:A 0
*RES
1 *1806:X *283:6 10.2464 
2 *283:6 *1809:A 21.1571 
3 *283:6 *1808:A 9.3 
*END

*D_NET *284 0.00202879
*CONN
*I *1809:B I *D sky130_fd_sc_hd__xor2_2
*I *1808:B I *D sky130_fd_sc_hd__nor2_2
*I *1807:Y O *D sky130_fd_sc_hd__a21oi_2
*CAP
1 *1809:B 5.70074e-05
2 *1808:B 0
3 *1807:Y 0.000489215
4 *284:10 0.000546223
5 *1809:B *285:10 0.000179656
6 *1809:B *352:13 0.000219193
7 *284:10 *352:11 5.41797e-06
8 *284:10 *352:13 0.000500668
9 *1807:B1 *284:10 3.14048e-05
10 *274:8 *1809:B 0
11 *274:8 *284:10 0
12 *274:21 *1809:B 0
*RES
1 *1807:Y *284:10 22.8893 
2 *284:10 *1808:B 13.8 
3 *284:10 *1809:B 7.35714 
*END

*D_NET *285 0.000906682
*CONN
*I *1845:B1 I *D sky130_fd_sc_hd__a21o_2
*I *1844:B I *D sky130_fd_sc_hd__or2_2
*I *1808:Y O *D sky130_fd_sc_hd__nor2_2
*CAP
1 *1845:B1 8.01979e-05
2 *1844:B 0
3 *1808:Y 0.00011624
4 *285:10 0.000196438
5 *1845:B1 *1853:A 4.01768e-05
6 *285:10 *1845:A2 0
7 *285:10 *352:13 7.4826e-05
8 *1809:B *285:10 0.000179656
9 *1844:A *1845:B1 8.05752e-05
10 *1845:A1 *1845:B1 2.89114e-05
11 *274:21 *285:10 0.000109661
*RES
1 *1808:Y *285:10 22.3714 
2 *285:10 *1844:B 9.3 
3 *285:10 *1845:B1 11.4964 
*END

*D_NET *286 0.000607443
*CONN
*I *1845:A2 I *D sky130_fd_sc_hd__a21o_2
*I *1810:B I *D sky130_fd_sc_hd__xnor2_2
*I *1809:X O *D sky130_fd_sc_hd__xor2_2
*CAP
1 *1845:A2 0.000115213
2 *1810:B 8.11086e-05
3 *1809:X 0
4 *286:6 0.000196322
5 *1810:B *1819:B1 0.000179656
6 *1845:A2 *1819:B1 3.51442e-05
7 *1845:A2 *2091:A 0
8 *274:21 *1810:B 0
9 *274:21 *1845:A2 0
10 *285:10 *1845:A2 0
*RES
1 *1809:X *286:6 13.8 
2 *286:6 *1810:B 16.05 
3 *286:6 *1845:A2 16.05 
*END

*D_NET *287 0.00107026
*CONN
*I *1812:B I *D sky130_fd_sc_hd__xor2_2
*I *1811:B I *D sky130_fd_sc_hd__nor2_2
*I *1810:Y O *D sky130_fd_sc_hd__xnor2_2
*CAP
1 *1812:B 9.23205e-05
2 *1811:B 0.000316761
3 *1810:Y 0
4 *287:4 0.000409081
5 *1811:B *1813:B 0
6 *1811:B *345:8 0.000153054
7 *1812:A *1812:B 9.90431e-05
*RES
1 *1810:Y *287:4 9.3 
2 *287:4 *1811:B 24.0679 
3 *287:4 *1812:B 1.72321 
*END

*D_NET *288 0.0014293
*CONN
*I *1819:B1 I *D sky130_fd_sc_hd__a21o_2
*I *1811:Y O *D sky130_fd_sc_hd__nor2_2
*CAP
1 *1819:B1 0.000463437
2 *1811:Y 0.000463437
3 *1819:B1 *1906:A1 0.000186669
4 *1819:B1 *2091:A 0
5 *1819:B1 *295:12 0.00010096
6 *1819:B1 *345:8 0
7 *1810:B *1819:B1 0.000179656
8 *1845:A2 *1819:B1 3.51442e-05
9 *274:8 *1819:B1 0
10 *274:21 *1819:B1 0
*RES
1 *1811:Y *1819:B1 37.0286 
*END

*D_NET *289 0.00141865
*CONN
*I *1819:A2 I *D sky130_fd_sc_hd__a21o_2
*I *1813:B I *D sky130_fd_sc_hd__xnor2_2
*I *1812:X O *D sky130_fd_sc_hd__xor2_2
*CAP
1 *1819:A2 0.000102386
2 *1813:B 0.000142558
3 *1812:X 0.000167766
4 *289:8 0.00041271
5 *1813:B *1818:B 9.80173e-05
6 *1813:B *2087:A 9.60939e-05
7 *1813:B *345:8 0
8 *1819:A2 *345:8 0
9 *1811:B *1813:B 0
10 *1819:A1 *1813:B 0.000142797
11 *1819:A1 *1819:A2 0.00020042
12 *241:8 *1813:B 5.59013e-05
*RES
1 *1812:X *289:8 16.3893 
2 *289:8 *1813:B 17.3 
3 *289:8 *1819:A2 16.3536 
*END

*D_NET *290 0.000670142
*CONN
*I *1815:A I *D sky130_fd_sc_hd__nor2_2
*I *1816:A I *D sky130_fd_sc_hd__xor2_2
*I *1813:Y O *D sky130_fd_sc_hd__xnor2_2
*CAP
1 *1815:A 0.000142775
2 *1816:A 0.000100877
3 *1813:Y 0
4 *290:6 0.000243651
5 *1815:A *340:14 7.30398e-05
6 *1816:A *1818:B 0.0001098
*RES
1 *1813:Y *290:6 13.8 
2 *290:6 *1816:A 16.3536 
3 *290:6 *1815:A 16.8893 
*END

*D_NET *291 0.00156074
*CONN
*I *1815:B I *D sky130_fd_sc_hd__nor2_2
*I *1816:B I *D sky130_fd_sc_hd__xor2_2
*I *1814:X O *D sky130_fd_sc_hd__and2b_2
*CAP
1 *1815:B 0.00010166
2 *1816:B 0
3 *1814:X 0.000233447
4 *291:10 0.000335107
5 *1815:B *1869:B1 0.000344932
6 *1815:B *2087:A 0
7 *1815:B *340:14 0.000396427
8 *291:10 *2087:A 0
9 *291:10 *340:14 0.000120267
10 y[4] *291:10 0
11 *1819:A1 *1815:B 0
12 *206:16 *291:10 2.89016e-05
*RES
1 *1814:X *291:10 17.2107 
2 *291:10 *1816:B 4.5 
3 *291:10 *1815:B 18.7821 
*END

*D_NET *292 0.0015488
*CONN
*I *1869:B1 I *D sky130_fd_sc_hd__a21o_4
*I *1815:Y O *D sky130_fd_sc_hd__nor2_2
*CAP
1 *1869:B1 0.000483801
2 *1815:Y 0.000483801
3 *1869:B1 *1818:A 8.07313e-05
4 *1869:B1 *1869:A1 3.14078e-05
5 *1869:B1 *1869:A2 9.80173e-05
6 *1869:B1 *2087:A 0
7 *1869:B1 *294:12 2.61099e-05
8 *1815:B *1869:B1 0.000344932
9 *1819:A1 *1869:B1 0
*RES
1 *1815:Y *1869:B1 37.8679 
*END

*D_NET *293 0.00134868
*CONN
*I *1818:A I *D sky130_fd_sc_hd__xor2_2
*I *1869:A2 I *D sky130_fd_sc_hd__a21o_4
*I *1816:X O *D sky130_fd_sc_hd__xor2_2
*CAP
1 *1818:A 0.000298565
2 *1869:A2 2.33224e-05
3 *1816:X 0.000321887
4 *1818:A *1818:B 0
5 *1818:A *294:12 0.000474397
6 *1869:A2 *1869:A1 5.17614e-05
7 *1869:B1 *1818:A 8.07313e-05
8 *1869:B1 *1869:A2 9.80173e-05
*RES
1 *1816:X *1869:A2 19.5464 
2 *1816:X *1818:A 34.4929 
*END

*D_NET *294 0.00350114
*CONN
*I *2087:A I *D sky130_fd_sc_hd__buf_6
*I *1869:A1 I *D sky130_fd_sc_hd__a21o_4
*I *1817:X O *D sky130_fd_sc_hd__a21o_4
*CAP
1 *2087:A 0.000270354
2 *1869:A1 0.000171924
3 *1817:X 0.00074727
4 *294:12 0.00118955
5 *2087:A *1818:B 4.58976e-05
6 *294:12 *1745:A2 0.000106516
7 *294:12 *1818:B 4.18853e-05
8 *294:12 *340:14 0
9 *1813:A *2087:A 9.71197e-05
10 *1813:B *2087:A 9.60939e-05
11 *1815:B *2087:A 0
12 *1818:A *294:12 0.000474397
13 *1869:A2 *1869:A1 5.17614e-05
14 *1869:B1 *1869:A1 3.14078e-05
15 *1869:B1 *2087:A 0
16 *1869:B1 *294:12 2.61099e-05
17 *2054:A *294:12 0
18 *241:8 *2087:A 0.000150857
19 *291:10 *2087:A 0
*RES
1 *1817:X *294:12 31.8714 
2 *294:12 *1869:A1 11.8 
3 *294:12 *2087:A 24.2643 
*END

*D_NET *295 0.0013264
*CONN
*I *1868:A I *D sky130_fd_sc_hd__xnor2_2
*I *1867:B I *D sky130_fd_sc_hd__and2b_2
*I *1819:X O *D sky130_fd_sc_hd__a21o_2
*CAP
1 *1868:A 0.0001241
2 *1867:B 0
3 *1819:X 0.000293996
4 *295:12 0.000418096
5 *1868:A *1868:B 0.000232399
6 *1868:A *1906:B1 0.000129595
7 *295:12 *1906:A1 2.44318e-05
8 *295:12 *1906:A2 0
9 *295:12 *1906:B1 0
10 *295:12 *2091:A 0
11 *295:12 *344:14 0
12 *1819:A1 *295:12 2.8266e-06
13 *1819:B1 *295:12 0.00010096
*RES
1 *1819:X *295:12 23.7286 
2 *295:12 *1867:B 9.3 
3 *295:12 *1868:A 13.1571 
*END

*D_NET *296 0.00247232
*CONN
*I *1843:A I *D sky130_fd_sc_hd__xnor2_2
*I *1878:A2 I *D sky130_fd_sc_hd__a21oi_2
*I *1820:X O *D sky130_fd_sc_hd__a21o_2
*CAP
1 *1843:A 0
2 *1878:A2 0.000361595
3 *1820:X 0.000737621
4 *296:14 0.00109922
5 *1878:A2 *1841:B 0
6 *1878:A2 *1843:B 0
7 *1878:A2 *1878:A1 6.2136e-05
8 *1878:A2 *306:8 0
9 *1791:B *296:14 0
10 *1793:A *296:14 0
11 *1793:B *296:14 2.00751e-05
12 *1795:A *296:14 9.01334e-05
13 *1820:B1 *296:14 0.000101545
*RES
1 *1820:X *296:14 31.7821 
2 *296:14 *1878:A2 24.7464 
3 *296:14 *1843:A 9.3 
*END

*D_NET *297 0.00197803
*CONN
*I *2094:A I *D sky130_fd_sc_hd__buf_2
*I *1822:B I *D sky130_fd_sc_hd__or2_2
*I *1821:Y O *D sky130_fd_sc_hd__a21oi_2
*CAP
1 *2094:A 0.000171693
2 *1822:B 0
3 *1821:Y 0.00025058
4 *297:10 0.000422273
5 *2094:A *1830:B 0
6 *2094:A *1842:B 0.000230482
7 *2094:A *1881:A2 0.000126639
8 *1786:A *2094:A 0
9 *1786:A *297:10 0
10 *1789:A *297:10 0.000109809
11 *1790:B *297:10 0.000167691
12 *1821:A2 *297:10 3.95455e-05
13 *1822:A *2094:A 5.80706e-06
14 *1822:A *297:10 8.39e-05
15 *256:14 *297:10 9.60939e-05
16 *257:10 *297:10 0
17 *263:8 *2094:A 0
18 *264:8 *297:10 9.80029e-05
19 *265:10 *297:10 0.000175512
*RES
1 *1821:Y *297:10 21.8536 
2 *297:10 *1822:B 13.8 
3 *297:10 *2094:A 18.3536 
*END

*D_NET *298 0.000254977
*CONN
*I *1830:A I *D sky130_fd_sc_hd__xnor2_2
*I *1822:X O *D sky130_fd_sc_hd__or2_2
*CAP
1 *1830:A 9.98731e-05
2 *1822:X 9.98731e-05
3 *1830:A *1830:B 5.52302e-05
*RES
1 *1822:X *1830:A 20.3679 
*END

*D_NET *299 0.000352551
*CONN
*I *1825:B1 I *D sky130_fd_sc_hd__o21a_2
*I *1823:X O *D sky130_fd_sc_hd__a22o_2
*CAP
1 *1825:B1 9.01958e-05
2 *1823:X 9.01958e-05
3 *1825:B1 *1823:A1 1.00375e-05
4 *1825:B1 *1825:A2 0.000104974
5 *1825:B1 *445:73 0
6 *259:34 *1825:B1 5.71472e-05
*RES
1 *1823:X *1825:B1 29.7786 
*END

*D_NET *300 0.00111852
*CONN
*I *1911:B1 I *D sky130_fd_sc_hd__a21o_2
*I *1825:A2 I *D sky130_fd_sc_hd__o21a_2
*I *1824:Y O *D sky130_fd_sc_hd__nand2_2
*CAP
1 *1911:B1 6.48559e-05
2 *1825:A2 0.000125127
3 *1824:Y 0
4 *300:4 0.000189982
5 *1825:A2 *1823:A1 8.89385e-05
6 *1825:A2 *1824:A 0.000173097
7 *1825:A2 *1824:B 0.000171375
8 *1825:A2 *445:73 0
9 *1911:B1 *1824:B 5.33005e-05
10 *1911:B1 *1912:B 0.00010096
11 *1911:B1 *366:12 4.59075e-05
12 *1825:B1 *1825:A2 0.000104974
*RES
1 *1824:Y *300:4 9.3 
2 *300:4 *1825:A2 22.675 
3 *300:4 *1911:B1 11.0679 
*END

*D_NET *301 0.0010908
*CONN
*I *1827:A I *D sky130_fd_sc_hd__nand2_2
*I *1828:A I *D sky130_fd_sc_hd__xnor2_2
*I *1825:X O *D sky130_fd_sc_hd__o21a_2
*CAP
1 *1827:A 0.000284216
2 *1828:A 0
3 *1825:X 0.000132772
4 *301:8 0.000416988
5 *1827:A *1827:B 5.38886e-05
6 *1827:A *302:10 1.19402e-05
7 *1827:A *303:12 6.0038e-05
8 *259:34 *1827:A 1.33343e-05
9 *259:34 *301:8 0.000117621
*RES
1 *1825:X *301:8 11.9071 
2 *301:8 *1828:A 9.3 
3 *301:8 *1827:A 23.7464 
*END

*D_NET *302 0.00151176
*CONN
*I *1827:B I *D sky130_fd_sc_hd__nand2_2
*I *1828:B I *D sky130_fd_sc_hd__xnor2_2
*I *1826:Y O *D sky130_fd_sc_hd__o21bai_2
*CAP
1 *1827:B 8.58501e-05
2 *1828:B 0
3 *1826:Y 0.000291105
4 *302:10 0.000376955
5 *1827:B *1915:B 4.55397e-05
6 *1827:B *303:12 3.17067e-05
7 *1827:B *514:10 8.32242e-05
8 *1827:B *514:14 0.000117896
9 *302:10 *1842:B 4.38244e-05
10 *302:10 *514:14 0.000369825
11 *1827:A *1827:B 5.38886e-05
12 *1827:A *302:10 1.19402e-05
*RES
1 *1826:Y *302:10 20.2464 
2 *302:10 *1828:B 13.8 
3 *302:10 *1827:B 16.8893 
*END

*D_NET *303 0.00104137
*CONN
*I *1880:A I *D sky130_fd_sc_hd__xnor2_2
*I *1911:A2 I *D sky130_fd_sc_hd__a21o_2
*I *1827:Y O *D sky130_fd_sc_hd__nand2_2
*CAP
1 *1880:A 0
2 *1911:A2 8.89612e-05
3 *1827:Y 0.000180825
4 *303:12 0.000269786
5 *1911:A2 *1880:B 5.52238e-05
6 *1911:A2 *1912:B 6.26959e-05
7 *303:12 *1912:B 0.000140933
8 *303:12 *514:10 5.21676e-05
9 *1827:A *303:12 6.0038e-05
10 *1827:B *303:12 3.17067e-05
11 *1911:A1 *1911:A2 9.90367e-05
*RES
1 *1827:Y *303:12 22.5143 
2 *303:12 *1911:A2 11.4964 
3 *303:12 *1880:A 9.3 
*END

*D_NET *304 0.00132708
*CONN
*I *1829:B I *D sky130_fd_sc_hd__xnor2_2
*I *1881:B1 I *D sky130_fd_sc_hd__a21oi_2
*I *1828:Y O *D sky130_fd_sc_hd__xnor2_2
*CAP
1 *1829:B 0
2 *1881:B1 0.000132149
3 *1828:Y 0.000327933
4 *304:10 0.000460081
5 *1881:B1 *1842:B 3.18676e-05
6 *1881:B1 *356:10 0.000177948
7 *304:10 *356:10 0.000128146
8 *1829:A *1881:B1 1.37292e-05
9 *263:8 *1881:B1 5.52238e-05
*RES
1 *1828:Y *304:10 18.4429 
2 *304:10 *1881:B1 17.1929 
3 *304:10 *1829:B 13.8 
*END

*D_NET *305 0.00070676
*CONN
*I *1830:B I *D sky130_fd_sc_hd__xnor2_2
*I *1829:Y O *D sky130_fd_sc_hd__xnor2_2
*CAP
1 *1830:B 0.000325765
2 *1829:Y 0.000325765
3 *1830:B *1841:A 0
4 *1822:A *1830:B 0
5 *1829:A *1830:B 0
6 *1830:A *1830:B 5.52302e-05
7 *2094:A *1830:B 0
*RES
1 *1829:Y *1830:B 33.1179 
*END

*D_NET *306 0.000659462
*CONN
*I *1841:A I *D sky130_fd_sc_hd__nor2_2
*I *1842:A I *D sky130_fd_sc_hd__xor2_2
*I *1830:Y O *D sky130_fd_sc_hd__xnor2_2
*CAP
1 *1841:A 0.000127344
2 *1842:A 0
3 *1830:Y 0.000123843
4 *306:8 0.000251187
5 *1841:A *1841:B 0.000121945
6 *306:8 *1841:B 3.51442e-05
7 *1830:B *1841:A 0
8 *1878:A2 *306:8 0
*RES
1 *1830:Y *306:8 15.7464 
2 *306:8 *1842:A 13.8 
3 *306:8 *1841:A 17.0143 
*END

*D_NET *307 0.000974748
*CONN
*I *1840:A I *D sky130_fd_sc_hd__xnor2_2
*I *1831:X O *D sky130_fd_sc_hd__a21o_2
*CAP
1 *1840:A 0.000275672
2 *1831:X 0.000275672
3 *1840:A *1840:B 4.88847e-05
4 *1831:B1 *1840:A 5.20669e-05
5 *1888:C1 *1840:A 0.000322453
*RES
1 *1831:X *1840:A 33.4393 
*END

*D_NET *308 0.00197172
*CONN
*I *1834:A I *D sky130_fd_sc_hd__nor2_2
*I *1836:A I *D sky130_fd_sc_hd__or3_2
*I *1832:Y O *D sky130_fd_sc_hd__a22oi_2
*CAP
1 *1834:A 0.000342853
2 *1836:A 6.54538e-05
3 *1832:Y 5.1851e-05
4 *308:8 0.000460158
5 *1834:A *1837:A 2.37761e-05
6 *1834:A *1837:B 0
7 *1834:A *1885:A 2.26327e-05
8 *1834:A *1913:A 4.1331e-06
9 *1834:A *309:18 0
10 *1834:A *512:16 0.000134758
11 *1836:A *1769:B 0.000268403
12 *1836:A *1836:C 8.46829e-05
13 *1836:A *1885:B 1.98839e-05
14 *1836:A *311:12 0.000183726
15 *1836:A *360:10 1.74352e-05
16 *308:8 *1769:B 0.00012501
17 *308:8 *1885:A 2.82057e-05
18 *308:8 *495:10 0.000100823
19 *1885:C *1834:A 2.61337e-05
20 *1885:C *308:8 1.17968e-05
21 *2066:A *1834:A 0
*RES
1 *1832:Y *308:8 15.7464 
2 *308:8 *1836:A 16.8 
3 *308:8 *1834:A 21.2107 
*END

*D_NET *309 0.00376884
*CONN
*I *1836:B I *D sky130_fd_sc_hd__or3_2
*I *1913:A I *D sky130_fd_sc_hd__or3_4
*I *1834:B I *D sky130_fd_sc_hd__nor2_2
*I *1833:X O *D sky130_fd_sc_hd__and4_2
*CAP
1 *1836:B 5.68551e-05
2 *1913:A 0.000674641
3 *1834:B 0
4 *1833:X 0.000204778
5 *309:18 0.00100037
6 *309:12 0.000587364
7 *1836:B *1769:B 9.90431e-05
8 *1913:A *1887:B 1.92905e-05
9 *1913:A *364:14 0
10 *309:12 *1769:B 9.71197e-05
11 *309:12 *495:18 0.000100823
12 *309:18 *1837:A 6.32633e-05
13 *309:18 *1837:B 0.000369818
14 *309:18 *1839:B 0
15 *309:18 *360:10 0
16 *309:18 *364:14 0.000195471
17 *309:18 *512:16 5.90443e-06
18 *1770:A2 *309:12 0.000148189
19 *1834:A *1913:A 4.1331e-06
20 *1834:A *309:18 0
21 *1885:C *309:12 0.00012401
22 *1885:C *309:18 1.77672e-05
*RES
1 *1833:X *309:12 22.7107 
2 *309:12 *309:18 13.4643 
3 *309:18 *1834:B 13.8 
4 *309:18 *1913:A 24.4964 
5 *309:12 *1836:B 10.2464 
*END

*D_NET *310 0.000257546
*CONN
*I *1837:A I *D sky130_fd_sc_hd__xnor2_2
*I *1834:Y O *D sky130_fd_sc_hd__nor2_2
*CAP
1 *1837:A 5.73061e-05
2 *1834:Y 5.73061e-05
3 *1837:A *512:16 5.58941e-05
4 *1834:A *1837:A 2.37761e-05
5 *309:18 *1837:A 6.32633e-05
*RES
1 *1834:Y *1837:A 29.2429 
*END

*D_NET *311 0.00223721
*CONN
*I *1836:C I *D sky130_fd_sc_hd__or3_2
*I *1837:B I *D sky130_fd_sc_hd__xnor2_2
*I *1835:Y O *D sky130_fd_sc_hd__nor2_2
*CAP
1 *1836:C 2.63092e-05
2 *1837:B 0.000138625
3 *1835:Y 0.000311069
4 *311:12 0.000476004
5 *1836:C *360:10 4.87953e-05
6 *1837:B *512:16 9.57064e-05
7 *311:12 *1885:A 0.000178881
8 *311:12 *1885:B 1.21258e-05
9 *311:12 *360:10 6.05161e-06
10 *311:12 *440:99 0.000129868
11 *1834:A *1837:B 0
12 *1836:A *1836:C 8.46829e-05
13 *1836:A *311:12 0.000183726
14 *1885:C *1837:B 1.76135e-05
15 *2064:A *311:12 5.63998e-05
16 *2066:A *311:12 0.000101535
17 *309:18 *1837:B 0.000369818
*RES
1 *1835:Y *311:12 26.4964 
2 *311:12 *1837:B 22.9786 
3 *311:12 *1836:C 10.2464 
*END

*D_NET *312 0.00177929
*CONN
*I *1887:A I *D sky130_fd_sc_hd__xnor2_2
*I *1886:A_N I *D sky130_fd_sc_hd__and2b_2
*I *1836:X O *D sky130_fd_sc_hd__or3_2
*CAP
1 *1887:A 0.000149969
2 *1886:A_N 0.000136222
3 *1836:X 0.00024562
4 *312:8 0.000531811
5 *1887:A *1887:B 0.00013726
6 *1887:A *1913:B 0
7 *1887:A *1913:C 0
8 *1887:A *360:10 7.39741e-05
9 *1887:A *364:14 1.91512e-05
10 *312:8 *1838:B 0
11 *312:8 *1839:B 0
12 *312:8 *313:21 0
13 *312:8 *360:10 0.000485285
14 *1838:A *1887:A 0
*RES
1 *1836:X *312:8 19.9964 
2 *312:8 *1886:A_N 15.5679 
3 *312:8 *1887:A 17.4964 
*END

*D_NET *313 0.00281073
*CONN
*I *1838:B I *D sky130_fd_sc_hd__and2_2
*I *1889:A2 I *D sky130_fd_sc_hd__o21a_4
*I *1839:B I *D sky130_fd_sc_hd__xor2_2
*I *1888:A2 I *D sky130_fd_sc_hd__a211o_4
*I *1837:Y O *D sky130_fd_sc_hd__xnor2_2
*CAP
1 *1838:B 0.000285562
2 *1889:A2 0
3 *1839:B 0.000199405
4 *1888:A2 0.000402023
5 *1837:Y 3.99391e-05
6 *313:21 0.000323916
7 *313:19 0.000410072
8 *313:6 0.000441962
9 *1838:B *1913:B 2.15245e-05
10 *1888:A2 *506:10 0.000186471
11 *313:6 *506:10 5.33334e-05
12 *1838:A *1838:B 0.00018591
13 *1838:A *313:21 9.74684e-05
14 *1888:C1 *1888:A2 7.57312e-05
15 *251:19 *1839:B 8.16036e-05
16 *251:19 *313:21 5.80706e-06
17 *309:18 *1839:B 0
18 *312:8 *1838:B 0
19 *312:8 *1839:B 0
20 *312:8 *313:21 0
*RES
1 *1837:Y *313:6 10.2464 
2 *313:6 *1888:A2 16.4429 
3 *313:6 *313:19 4.5 
4 *313:19 *313:21 2.55357 
5 *313:21 *1839:B 8.16964 
6 *313:21 *1889:A2 13.8 
7 *313:19 *1838:B 19.0679 
*END

*D_NET *314 0.000350933
*CONN
*I *1888:B1 I *D sky130_fd_sc_hd__a211o_4
*I *1838:X O *D sky130_fd_sc_hd__and2_2
*CAP
1 *1888:B1 0.000175466
2 *1838:X 0.000175466
3 *1838:A *1888:B1 0
*RES
1 *1838:X *1888:B1 30.0821 
*END

*D_NET *315 0.000235857
*CONN
*I *1840:B I *D sky130_fd_sc_hd__xnor2_2
*I *1839:X O *D sky130_fd_sc_hd__xor2_2
*CAP
1 *1840:B 9.34863e-05
2 *1839:X 9.34863e-05
3 *1838:A *1840:B 0
4 *1840:A *1840:B 4.88847e-05
5 *251:19 *1840:B 0
*RES
1 *1839:X *1840:B 29.5464 
*END

*D_NET *316 0.00436737
*CONN
*I *1841:B I *D sky130_fd_sc_hd__nor2_2
*I *1842:B I *D sky130_fd_sc_hd__xor2_2
*I *1840:Y O *D sky130_fd_sc_hd__xnor2_2
*CAP
1 *1841:B 0.000107404
2 *1842:B 0.00187349
3 *1840:Y 0.00176608
4 *1841:B *1878:A1 0
5 *1842:B *1881:A2 2.95726e-05
6 *1786:A *1842:B 2.89114e-05
7 *1826:B1_N *1842:B 2.89114e-05
8 *1841:A *1841:B 0.000121945
9 *1878:A2 *1841:B 0
10 *1881:B1 *1842:B 3.18676e-05
11 *2094:A *1842:B 0.000230482
12 *263:8 *1842:B 6.97409e-05
13 *302:10 *1842:B 4.38244e-05
14 *306:8 *1841:B 3.51442e-05
*RES
1 *1840:Y *1842:B 30.6304 
2 *1842:B *1841:B 21.1571 
*END

*D_NET *317 6.37568e-05
*CONN
*I *1878:B1 I *D sky130_fd_sc_hd__a21oi_2
*I *1841:Y O *D sky130_fd_sc_hd__nor2_2
*CAP
1 *1878:B1 3.18784e-05
2 *1841:Y 3.18784e-05
*RES
1 *1841:Y *1878:B1 19.1357 
*END

*D_NET *318 0.000738123
*CONN
*I *1878:A1 I *D sky130_fd_sc_hd__a21oi_2
*I *1843:B I *D sky130_fd_sc_hd__xnor2_2
*I *1842:X O *D sky130_fd_sc_hd__xor2_2
*CAP
1 *1878:A1 0.000227623
2 *1843:B 0.000110371
3 *1842:X 0
4 *318:6 0.000337994
5 *1841:B *1878:A1 0
6 *1878:A2 *1843:B 0
7 *1878:A2 *1878:A1 6.2136e-05
*RES
1 *1842:X *318:6 13.8 
2 *318:6 *1843:B 15.7464 
3 *318:6 *1878:A1 18.1571 
*END

*D_NET *319 0.00444609
*CONN
*I *1855:A I *D sky130_fd_sc_hd__xnor2_2
*I *1854:A I *D sky130_fd_sc_hd__nor2_2
*I *1843:Y O *D sky130_fd_sc_hd__xnor2_2
*CAP
1 *1855:A 3.08975e-05
2 *1854:A 0.000127489
3 *1843:Y 0.00181071
4 *319:10 0.00196909
5 *1854:A *1854:B 0
6 *319:10 *1896:A 2.89114e-05
7 *319:10 *1899:A 9.7659e-05
8 *319:10 *1918:A2 9.7659e-05
9 *319:10 *1918:B1 7.77751e-05
10 *319:10 *371:6 2.89016e-05
11 *319:10 *374:10 0.000151061
12 *1918:A1 *319:10 2.59355e-05
*RES
1 *1843:Y *319:10 34.925 
2 *319:10 *1854:A 20.55 
3 *319:10 *1855:A 9.83571 
*END

*D_NET *320 0.00119647
*CONN
*I *1897:A2 I *D sky130_fd_sc_hd__o21ai_2
*I *1898:A2 I *D sky130_fd_sc_hd__o211ai_2
*I *1844:X O *D sky130_fd_sc_hd__or2_2
*CAP
1 *1897:A2 0.000120683
2 *1898:A2 0
3 *1844:X 0.000313408
4 *320:10 0.000434091
5 *1897:A2 *1852:B 9.90367e-05
6 *1897:A2 *1919:A 0
7 *1897:A2 *327:14 0
8 *320:10 *327:14 0
9 *1897:A1 *1897:A2 5.52238e-05
10 *281:19 *1897:A2 5.80706e-06
11 *281:19 *320:10 8.15939e-05
12 *281:30 *1897:A2 8.66228e-05
*RES
1 *1844:X *320:10 18.3357 
2 *320:10 *1898:A2 13.8 
3 *320:10 *1897:A2 16.9964 
*END

*D_NET *321 0.000920499
*CONN
*I *1853:A I *D sky130_fd_sc_hd__xnor2_2
*I *1845:X O *D sky130_fd_sc_hd__a21o_2
*CAP
1 *1853:A 0.000434963
2 *1845:X 0.000434963
3 *1853:A *352:13 0
4 *1845:A1 *1853:A 1.03968e-05
5 *1845:B1 *1853:A 4.01768e-05
*RES
1 *1845:X *1853:A 34.2607 
*END

*D_NET *322 0.00133748
*CONN
*I *1848:B1 I *D sky130_fd_sc_hd__o21a_2
*I *1846:X O *D sky130_fd_sc_hd__a22o_2
*CAP
1 *1848:B1 0.000202317
2 *1846:X 0.000202317
3 *1848:B1 *1799:A 0.000128154
4 *1848:B1 *1847:A 6.51946e-05
5 *1848:B1 *452:62 0.000105682
6 *1848:B1 *453:73 0.000132198
7 *1848:B1 *470:24 0.000271958
8 *1800:A1 *1848:B1 6.0038e-05
9 *1800:A2 *1848:B1 1.91414e-05
10 *1848:A1 *1848:B1 9.91086e-06
11 *1918:A1 *1848:B1 1.28329e-05
12 *276:19 *1848:B1 5.64115e-05
13 *276:30 *1848:B1 7.1325e-05
*RES
1 *1846:X *1848:B1 35.6179 
*END

*D_NET *323 0.00073158
*CONN
*I *1848:A2 I *D sky130_fd_sc_hd__o21a_2
*I *1918:B1 I *D sky130_fd_sc_hd__a21o_2
*I *1847:Y O *D sky130_fd_sc_hd__nand2_2
*CAP
1 *1848:A2 0
2 *1918:B1 0.000192479
3 *1847:Y 6.20371e-05
4 *323:6 0.000254516
5 *323:6 *1847:B 0.000144773
6 *1918:A1 *1918:B1 0
7 *319:10 *1918:B1 7.77751e-05
*RES
1 *1847:Y *323:6 10.6571 
2 *323:6 *1918:B1 21.9071 
3 *323:6 *1848:A2 9.3 
*END

*D_NET *324 0.000644888
*CONN
*I *1849:B1 I *D sky130_fd_sc_hd__o21ai_2
*I *1850:C I *D sky130_fd_sc_hd__or3_2
*I *1848:X O *D sky130_fd_sc_hd__o21a_2
*CAP
1 *1849:B1 0
2 *1850:C 7.805e-05
3 *1848:X 7.37539e-05
4 *324:6 0.000151804
5 *1850:C *1896:B 2.59355e-05
6 *1850:C *383:16 0.000148911
7 *1850:C *470:16 0.000150618
8 *324:6 *1847:B 1.58163e-05
*RES
1 *1848:X *324:6 10.2464 
2 *324:6 *1850:C 20.7821 
3 *324:6 *1849:B1 9.3 
*END

*D_NET *325 0.001205
*CONN
*I *1896:A I *D sky130_fd_sc_hd__xnor2_2
*I *1918:A2 I *D sky130_fd_sc_hd__a21o_2
*I *1851:A I *D sky130_fd_sc_hd__and2_2
*I *1849:Y O *D sky130_fd_sc_hd__o21ai_2
*CAP
1 *1896:A 2.1256e-05
2 *1918:A2 8.11178e-05
3 *1851:A 0.000126806
4 *1849:Y 0
5 *325:21 0.000169353
6 *325:6 0.000193785
7 *1851:A *1851:B 5.62995e-05
8 *1851:A *1896:B 0.000145783
9 *1851:A *383:16 2.00751e-05
10 *325:21 *1896:B 8.39e-05
11 *325:21 *383:16 6.16864e-05
12 *1849:A1 *1851:A 9.4736e-05
13 *1849:A2 *1851:A 0
14 *1850:B *1851:A 1.02936e-05
15 *275:25 *1851:A 1.33343e-05
16 *319:10 *1896:A 2.89114e-05
17 *319:10 *1918:A2 9.7659e-05
*RES
1 *1849:Y *325:6 13.8 
2 *325:6 *1851:A 18.0143 
3 *325:6 *325:21 6.75 
4 *325:21 *1918:A2 11.0679 
5 *325:21 *1896:A 9.83571 
*END

*D_NET *326 0.000399818
*CONN
*I *1851:B I *D sky130_fd_sc_hd__and2_2
*I *1850:X O *D sky130_fd_sc_hd__or3_2
*CAP
1 *1851:B 0.000100334
2 *1850:X 0.000100334
3 *1850:B *1851:B 0.00014285
4 *1851:A *1851:B 5.62995e-05
5 *275:25 *1851:B 0
*RES
1 *1850:X *1851:B 21.1 
*END

*D_NET *327 0.00135712
*CONN
*I *1898:B1 I *D sky130_fd_sc_hd__o211ai_2
*I *1852:B I *D sky130_fd_sc_hd__xor2_2
*I *1897:B1 I *D sky130_fd_sc_hd__o21ai_2
*I *1851:X O *D sky130_fd_sc_hd__and2_2
*CAP
1 *1898:B1 0
2 *1852:B 0.000194108
3 *1897:B1 8.01715e-05
4 *1851:X 0.000176464
5 *327:14 0.000356678
6 *327:8 0.000258863
7 *327:14 *1898:C1 1.41029e-05
8 *327:14 *1919:A 0.000128154
9 *1897:A1 *1852:B 4.95372e-05
10 *1897:A2 *1852:B 9.90367e-05
11 *1897:A2 *327:14 0
12 *320:10 *327:14 0
*RES
1 *1851:X *327:8 12.3179 
2 *327:8 *327:14 10.9464 
3 *327:14 *1897:B1 10.2464 
4 *327:14 *1852:B 3.36607 
5 *327:8 *1898:B1 9.3 
*END

*D_NET *328 0.000112637
*CONN
*I *1853:B I *D sky130_fd_sc_hd__xnor2_2
*I *1852:X O *D sky130_fd_sc_hd__xor2_2
*CAP
1 *1853:B 5.63185e-05
2 *1852:X 5.63185e-05
*RES
1 *1852:X *1853:B 19.5464 
*END

*D_NET *329 0.00060872
*CONN
*I *1854:B I *D sky130_fd_sc_hd__nor2_2
*I *1855:B I *D sky130_fd_sc_hd__xnor2_2
*I *1853:Y O *D sky130_fd_sc_hd__xnor2_2
*CAP
1 *1854:B 0.00015077
2 *1855:B 0
3 *1853:Y 0.000139139
4 *329:8 0.000289909
5 *1854:B *1905:A_N 0
6 *1854:B *330:6 2.89016e-05
7 *329:8 *1865:B 0
8 *329:8 *1905:A_N 0
9 *1854:A *1854:B 0
*RES
1 *1853:Y *329:8 16.3536 
2 *329:8 *1855:B 13.8 
3 *329:8 *1854:B 16.5857 
*END

*D_NET *330 0.000986763
*CONN
*I *1904:A I *D sky130_fd_sc_hd__or3b_4
*I *1903:A1 I *D sky130_fd_sc_hd__o21ba_2
*I *1854:Y O *D sky130_fd_sc_hd__nor2_2
*CAP
1 *1904:A 9.70945e-05
2 *1903:A1 0.00014773
3 *1854:Y 0.00011584
4 *330:6 0.000360664
5 *1903:A1 *1903:A2 0.00010096
6 *1903:A1 *1904:B 0
7 *1903:A1 *1904:C_N 7.92975e-05
8 *1903:A1 *378:8 1.39841e-05
9 *1904:A *379:10 4.22908e-05
10 *1854:B *330:6 2.89016e-05
*RES
1 *1854:Y *330:6 11.0679 
2 *330:6 *1903:A1 21.6036 
3 *330:6 *1904:A 11.0857 
*END

*D_NET *331 0.00174351
*CONN
*I *1865:A I *D sky130_fd_sc_hd__nor2_2
*I *1866:A I *D sky130_fd_sc_hd__xnor2_2
*I *1855:Y O *D sky130_fd_sc_hd__xnor2_2
*CAP
1 *1865:A 8.54285e-05
2 *1866:A 0.00011315
3 *1855:Y 0.000160628
4 *331:8 0.000359206
5 *1865:A *1865:B 0.000335674
6 *1865:A *1905:B 0.000126439
7 *1865:A *1927:A2 0.000218486
8 *1866:A *1865:B 0.000250201
9 *1866:A *1905:B 5.83233e-05
10 *1866:A *1907:A 1.00375e-05
11 *1866:A *381:8 0
12 *331:8 *1905:A_N 2.59355e-05
*RES
1 *1855:Y *331:8 15.5679 
2 *331:8 *1866:A 17.2643 
3 *331:8 *1865:A 18.175 
*END

*D_NET *332 0.000525796
*CONN
*I *1858:B1 I *D sky130_fd_sc_hd__o21a_2
*I *1856:X O *D sky130_fd_sc_hd__a22o_2
*CAP
1 *1858:B1 0.000127397
2 *1856:X 0.000127397
3 *1858:B1 *1856:A2 2.42516e-05
4 *1858:B1 *1858:A2 0.000100478
5 *1858:B1 *448:28 1.91936e-05
6 *233:23 *1858:B1 0.000127079
*RES
1 *1856:X *1858:B1 30.1893 
*END

*D_NET *333 0.00123216
*CONN
*I *1908:B1 I *D sky130_fd_sc_hd__a21o_2
*I *1858:A2 I *D sky130_fd_sc_hd__o21a_2
*I *1857:Y O *D sky130_fd_sc_hd__nand2_2
*CAP
1 *1908:B1 0.000118501
2 *1858:A2 0.000199297
3 *1857:Y 0
4 *333:4 0.000317798
5 *1858:A2 *1857:A 5.33005e-05
6 *1858:A2 *1857:B 5.32071e-05
7 *1858:A2 *448:28 0.000147083
8 *1858:A2 *449:23 0.000146853
9 *1858:A2 *449:40 4.40513e-06
10 *1908:B1 *1857:A 1.24368e-05
11 *1908:B1 *1909:B 2.68557e-05
12 *1858:A1 *1858:A2 2.59355e-05
13 *1858:B1 *1858:A2 0.000100478
14 *233:23 *1858:A2 2.60107e-05
*RES
1 *1857:Y *333:4 9.3 
2 *333:4 *1858:A2 23.4429 
3 *333:4 *1908:B1 11.4964 
*END

*D_NET *334 0.00115668
*CONN
*I *1860:C I *D sky130_fd_sc_hd__or3_2
*I *1859:B1 I *D sky130_fd_sc_hd__o21ai_2
*I *1858:X O *D sky130_fd_sc_hd__o21a_2
*CAP
1 *1860:C 0.000185687
2 *1859:B1 0
3 *1858:X 0.00013541
4 *334:12 0.000321096
5 *334:12 *466:52 0.00020375
6 *1858:A1 *334:12 1.39841e-05
7 *1859:A1 *1860:C 3.11088e-05
8 *1859:A2 *1860:C 1.37246e-05
9 *1860:B *1860:C 1.85914e-05
10 *1908:A1 *334:12 7.27183e-05
11 *233:23 *1860:C 0.000160608
*RES
1 *1858:X *334:12 21.1929 
2 *334:12 *1859:B1 9.3 
3 *334:12 *1860:C 13.2821 
*END

*D_NET *335 0.00117239
*CONN
*I *1872:A I *D sky130_fd_sc_hd__xnor2_2
*I *1861:A I *D sky130_fd_sc_hd__and2_2
*I *1908:A2 I *D sky130_fd_sc_hd__a21o_2
*I *1859:Y O *D sky130_fd_sc_hd__o21ai_2
*CAP
1 *1872:A 0
2 *1861:A 0.000105736
3 *1908:A2 0
4 *1859:Y 0.000132458
5 *335:21 0.000235009
6 *335:12 0.000261731
7 *1861:A *1861:B 3.94758e-05
8 *1861:A *1909:B 0.000126416
9 *335:12 *1872:B 6.93626e-06
10 *335:12 *1909:B 2.46518e-05
11 *335:12 *466:52 4.27842e-06
12 *335:21 *1872:B 9.84729e-05
13 *335:21 *1909:B 3.37853e-05
14 *1908:A1 *335:12 0.000103437
*RES
1 *1859:Y *335:12 20.8893 
2 *335:12 *1908:A2 9.3 
3 *335:12 *335:21 2.60714 
4 *335:21 *1861:A 20.8536 
5 *335:21 *1872:A 9.3 
*END

*D_NET *336 0.000689675
*CONN
*I *1861:B I *D sky130_fd_sc_hd__and2_2
*I *1860:X O *D sky130_fd_sc_hd__or3_2
*CAP
1 *1861:B 0.000262725
2 *1860:X 0.000262725
3 *1861:B *1909:B 0.000124749
4 *1861:A *1861:B 3.94758e-05
*RES
1 *1860:X *1861:B 32.5107 
*END

*D_NET *337 0.00468566
*CONN
*I *1862:B I *D sky130_fd_sc_hd__xnor2_2
*I *1874:A2 I *D sky130_fd_sc_hd__a21o_2
*I *1875:A2 I *D sky130_fd_sc_hd__o21a_4
*I *1873:A2 I *D sky130_fd_sc_hd__a21o_2
*I *1861:X O *D sky130_fd_sc_hd__and2_2
*CAP
1 *1862:B 1.96946e-05
2 *1874:A2 0
3 *1875:A2 0
4 *1873:A2 0.000136789
5 *1861:X 0.00129724
6 *337:34 0.000123232
7 *337:16 0.000218194
8 *337:10 0.00148218
9 *337:10 *1875:B1 4.84159e-05
10 *337:10 *1876:B 0.000153278
11 *337:10 *1877:A 1.99271e-05
12 *337:10 *1909:A 3.06035e-05
13 *337:10 *1909:B 5.4959e-05
14 *337:10 *352:11 1.34278e-05
15 *337:16 *1874:B1 0.000126272
16 *1657:A *337:16 8.61222e-05
17 *1862:A *1862:B 7.15503e-05
18 *1862:A *337:16 3.17203e-05
19 *1862:A *337:34 9.84729e-05
20 *1873:A1 *1873:A2 0.000269747
21 *1874:A1 *1862:B 0.000143633
22 *1874:A1 *337:34 2.38501e-05
23 *134:8 *337:16 1.6806e-05
24 *134:12 *1873:A2 0.000214
25 *235:25 *337:16 5.54817e-06
*RES
1 *1861:X *337:10 25.8893 
2 *337:10 *337:16 11.5536 
3 *337:16 *1873:A2 13.55 
4 *337:16 *1875:A2 9.3 
5 *337:10 *337:34 2.19643 
6 *337:34 *1874:A2 9.3 
7 *337:34 *1862:B 10.6571 
*END

*D_NET *338 0.000204003
*CONN
*I *1864:A I *D sky130_fd_sc_hd__xnor2_2
*I *1862:Y O *D sky130_fd_sc_hd__xnor2_2
*CAP
1 *1864:A 6.8661e-05
2 *1862:Y 6.8661e-05
3 *221:8 *1864:A 6.66813e-05
*RES
1 *1862:Y *1864:A 29.2429 
*END

*D_NET *339 0.00107657
*CONN
*I *1864:B I *D sky130_fd_sc_hd__xnor2_2
*I *1863:Y O *D sky130_fd_sc_hd__a21oi_2
*CAP
1 *1864:B 0.000294974
2 *1863:Y 0.000294974
3 *1743:B *1864:B 0.000101813
4 *1863:A1 *1864:B 0.000171492
5 *1874:A1 *1864:B 0.000198115
6 *129:23 *1864:B 1.52013e-05
*RES
1 *1863:Y *1864:B 34.6357 
*END

*D_NET *340 0.00810237
*CONN
*I *1865:B I *D sky130_fd_sc_hd__nor2_2
*I *1866:B I *D sky130_fd_sc_hd__xnor2_2
*I *1864:Y O *D sky130_fd_sc_hd__xnor2_2
*CAP
1 *1865:B 0.000188289
2 *1866:B 0.000188289
3 *1864:Y 8.76668e-05
4 *340:14 0.00190309
5 *340:8 0.00199076
6 *1865:B *1905:A_N 0.00039229
7 *340:14 *1745:A2 0.000295144
8 *340:14 *1818:B 0.000364354
9 *340:14 *2073:A 6.97972e-05
10 *340:14 *2075:A 6.97972e-05
11 *340:14 *2076:A 0.000197777
12 *340:14 *2077:A 0.000212841
13 *340:14 *381:8 0.000638799
14 y[1] *340:14 0
15 y[2] *340:14 7.19919e-05
16 y[4] *340:14 0
17 *1744:B *340:14 0
18 *1764:A *340:14 6.58289e-05
19 *1764:B *340:14 0
20 *1815:A *340:14 7.30398e-05
21 *1815:B *340:14 0.000396427
22 *1817:A1 *340:14 0
23 *1819:A1 *340:14 0
24 *1865:A *1865:B 0.000335674
25 *1866:A *1865:B 0.000250201
26 *2052:A *340:14 0.000190051
27 *2053:A *340:14 0
28 *206:16 *340:14 0
29 *221:8 *340:14 0
30 *227:8 *340:14 0
31 *291:10 *340:14 0.000120267
32 *294:12 *340:14 0
33 *329:8 *1865:B 0
*RES
1 *1864:Y *340:8 15.1571 
2 *340:8 *340:14 49.6964 
3 *340:14 *1866:B 9.3 
4 *1866:B *1865:B 35.0107 
*END

*D_NET *341 0.000652363
*CONN
*I *1904:B I *D sky130_fd_sc_hd__or3b_4
*I *1903:A2 I *D sky130_fd_sc_hd__o21ba_2
*I *1865:Y O *D sky130_fd_sc_hd__nor2_2
*CAP
1 *1904:B 0.000100281
2 *1903:A2 3.51205e-05
3 *1865:Y 0
4 *341:4 0.000135402
5 *1903:A2 *378:8 7.77652e-05
6 *1904:B *1904:C_N 0
7 *1904:B *1905:A_N 0.000202835
8 *1903:A1 *1903:A2 0.00010096
9 *1903:A1 *1904:B 0
*RES
1 *1865:Y *341:4 9.3 
2 *341:4 *1903:A2 10.6571 
3 *341:4 *1904:B 20.8536 
*END

*D_NET *342 0.000758576
*CONN
*I *1868:B I *D sky130_fd_sc_hd__xnor2_2
*I *1867:A_N I *D sky130_fd_sc_hd__and2b_2
*I *1866:Y O *D sky130_fd_sc_hd__xnor2_2
*CAP
1 *1868:B 0.000106462
2 *1867:A_N 5.88446e-05
3 *1866:Y 9.77824e-05
4 *342:10 0.000263089
5 *1868:A *1868:B 0.000232399
*RES
1 *1866:Y *342:10 19.9429 
2 *342:10 *1867:A_N 10.2464 
3 *342:10 *1868:B 11.8893 
*END

*D_NET *343 0.00122303
*CONN
*I *1906:B1 I *D sky130_fd_sc_hd__a21o_4
*I *1867:X O *D sky130_fd_sc_hd__and2b_2
*CAP
1 *1906:B1 0.000346682
2 *1867:X 0.000346682
3 *1906:B1 *1906:A2 0.000202835
4 *1906:B1 *344:14 0.000126439
5 *1906:B1 *381:8 7.08001e-05
6 *1868:A *1906:B1 0.000129595
7 *295:12 *1906:B1 0
*RES
1 *1867:X *1906:B1 34.7964 
*END

*D_NET *344 0.00129958
*CONN
*I *1870:A I *D sky130_fd_sc_hd__xor2_2
*I *1906:A2 I *D sky130_fd_sc_hd__a21o_4
*I *1868:Y O *D sky130_fd_sc_hd__xnor2_2
*CAP
1 *1870:A 0
2 *1906:A2 0.000111845
3 *1868:Y 0.000326607
4 *344:14 0.000438452
5 *344:14 *381:8 9.34004e-05
6 *1819:A1 *1906:A2 0
7 *1906:B1 *1906:A2 0.000202835
8 *1906:B1 *344:14 0.000126439
9 *295:12 *1906:A2 0
10 *295:12 *344:14 0
*RES
1 *1868:Y *344:14 24.0857 
2 *344:14 *1906:A2 20.8536 
3 *344:14 *1870:A 9.3 
*END

*D_NET *345 0.00195353
*CONN
*I *2091:A I *D sky130_fd_sc_hd__buf_6
*I *1906:A1 I *D sky130_fd_sc_hd__a21o_4
*I *1869:X O *D sky130_fd_sc_hd__a21o_4
*CAP
1 *2091:A 0.000184335
2 *1906:A1 0.000232476
3 *1869:X 0.000353485
4 *345:8 0.000770296
5 *1811:B *345:8 0.000153054
6 *1813:B *345:8 0
7 *1819:A1 *1906:A1 4.87854e-05
8 *1819:A1 *2091:A 0
9 *1819:A2 *345:8 0
10 *1819:B1 *1906:A1 0.000186669
11 *1819:B1 *2091:A 0
12 *1819:B1 *345:8 0
13 *1845:A2 *2091:A 0
14 *241:8 *345:8 0
15 *295:12 *1906:A1 2.44318e-05
16 *295:12 *2091:A 0
*RES
1 *1869:X *345:8 20.6036 
2 *345:8 *1906:A1 18.4607 
3 *345:8 *2091:A 16.8893 
*END

*D_NET *346 0.000862843
*CONN
*I *1872:B I *D sky130_fd_sc_hd__xnor2_2
*I *1871:X O *D sky130_fd_sc_hd__and3_2
*CAP
1 *1872:B 0.000294915
2 *1871:X 0.000294915
3 *1872:B *1909:B 3.4689e-05
4 *1908:A1 *1872:B 0.000132914
5 *335:12 *1872:B 6.93626e-06
6 *335:21 *1872:B 9.84729e-05
*RES
1 *1871:X *1872:B 32.6179 
*END

*D_NET *347 0.00106583
*CONN
*I *1877:A I *D sky130_fd_sc_hd__xor2_4
*I *1876:A I *D sky130_fd_sc_hd__nand2_2
*I *1872:Y O *D sky130_fd_sc_hd__xnor2_2
*CAP
1 *1877:A 0.000137993
2 *1876:A 0
3 *1872:Y 0.000200502
4 *347:12 0.000338495
5 *1877:A *1876:B 6.95737e-05
6 *347:12 *2072:A 0.000101813
7 *347:12 *455:49 0.000197523
8 *337:10 *1877:A 1.99271e-05
*RES
1 *1872:Y *347:12 22.6214 
2 *347:12 *1876:A 9.3 
3 *347:12 *1877:A 11.925 
*END

*D_NET *348 0.000647163
*CONN
*I *1874:B1 I *D sky130_fd_sc_hd__a21o_2
*I *1873:X O *D sky130_fd_sc_hd__a21o_2
*CAP
1 *1874:B1 0.000168019
2 *1873:X 0.000168019
3 *1657:A *1874:B1 8.08608e-06
4 *1862:A *1874:B1 0.000101915
5 *134:12 *1874:B1 7.4854e-05
6 *337:16 *1874:B1 0.000126272
*RES
1 *1873:X *1874:B1 30.9036 
*END

*D_NET *349 0.000493151
*CONN
*I *1875:B1 I *D sky130_fd_sc_hd__o21a_4
*I *1874:X O *D sky130_fd_sc_hd__a21o_2
*CAP
1 *1875:B1 0.000126895
2 *1874:X 0.000126895
3 *1656:A *1875:B1 6.45351e-05
4 *1657:A *1875:B1 0.00011632
5 *134:8 *1875:B1 1.00887e-05
6 *337:10 *1875:B1 4.84159e-05
*RES
1 *1874:X *1875:B1 30.1893 
*END

*D_NET *350 0.00119412
*CONN
*I *1876:B I *D sky130_fd_sc_hd__nand2_2
*I *1877:B I *D sky130_fd_sc_hd__xor2_4
*I *1875:X O *D sky130_fd_sc_hd__o21a_4
*CAP
1 *1876:B 0.000162647
2 *1877:B 0.000485636
3 *1875:X 0.000322989
4 *1877:A *1876:B 6.95737e-05
5 *337:10 *1876:B 0.000153278
*RES
1 *1875:X *1877:B 33.1536 
2 *1877:B *1876:B 22.9929 
*END

*D_NET *351 0.000144131
*CONN
*I *1909:A I *D sky130_fd_sc_hd__nand2_2
*I *1876:Y O *D sky130_fd_sc_hd__nand2_2
*CAP
1 *1909:A 5.6764e-05
2 *1876:Y 5.6764e-05
3 *337:10 *1909:A 3.06035e-05
*RES
1 *1876:Y *1909:A 19.5464 
*END

*D_NET *352 0.00862744
*CONN
*I *2083:A I *D sky130_fd_sc_hd__buf_2
*I *1902:A I *D sky130_fd_sc_hd__xnor2_2
*I *1877:X O *D sky130_fd_sc_hd__xor2_4
*CAP
1 *2083:A 0.000172724
2 *1902:A 3.72704e-05
3 *1877:X 0.00129896
4 *352:13 0.0012859
5 *352:11 0.00237487
6 *2083:A *1901:B 0
7 *2083:A *1902:B 5.57914e-05
8 *2083:A *1924:A1 7.15962e-05
9 *2083:A *1924:B1 0
10 *2083:A *2084:A 5.52302e-05
11 *352:13 *1899:B 0
12 *352:13 *1901:B 0
13 *352:13 *1902:B 2.8266e-06
14 *352:13 *374:10 0
15 *1641:A *352:11 0.000241205
16 *1644:A1 *352:11 0.000208413
17 *1655:B *352:11 4.88537e-05
18 *1656:A *352:11 8.08608e-06
19 *1657:A *352:11 0
20 *1657:B *352:11 0
21 *1668:A *352:11 0
22 *1721:A *352:11 1.31516e-05
23 *1721:B *352:11 0.000263422
24 *1722:B *352:11 9.91086e-05
25 *1723:A *352:11 7.73758e-05
26 *1723:B *352:11 0.000243635
27 *1807:B1 *352:11 0.000313458
28 *1809:A *352:13 0.000227736
29 *1809:B *352:13 0.000219193
30 *1811:A *352:13 4.35048e-05
31 *1853:A *352:13 0
32 *108:27 *352:11 0.000114838
33 *116:8 *352:11 0.000103267
34 *118:19 *352:11 0
35 *121:10 *352:11 0
36 *133:14 *352:11 4.94455e-05
37 *144:10 *352:11 0
38 *145:12 *352:11 0
39 *147:14 *352:11 0.00034321
40 *148:10 *352:11 0
41 *148:23 *352:11 0
42 *199:8 *352:11 4.31193e-05
43 *273:12 *352:13 1.69115e-05
44 *274:8 *352:11 0
45 *281:19 *352:13 0
46 *281:30 *352:13 0
47 *284:10 *352:11 5.41797e-06
48 *284:10 *352:13 0.000500668
49 *285:10 *352:13 7.4826e-05
50 *337:10 *352:11 1.34278e-05
*RES
1 *1877:X *352:11 35.2321 
2 *352:11 *352:13 23.6518 
3 *352:13 *1902:A 14.3357 
4 *352:13 *2083:A 17.8179 
*END

*D_NET *353 0.00037312
*CONN
*I *1894:A I *D sky130_fd_sc_hd__xor2_2
*I *1910:A1 I *D sky130_fd_sc_hd__o21a_2
*I *1878:Y O *D sky130_fd_sc_hd__a21oi_2
*CAP
1 *1894:A 4.05636e-05
2 *1910:A1 0
3 *1878:Y 9.64746e-05
4 *353:10 0.000137038
5 *1894:A *1894:B 9.90431e-05
6 *353:10 *1892:A 0
*RES
1 *1878:Y *353:10 19.9429 
2 *353:10 *1910:A1 9.3 
3 *353:10 *1894:A 10.2464 
*END

*D_NET *354 0.00061649
*CONN
*I *1880:B I *D sky130_fd_sc_hd__xnor2_2
*I *1879:X O *D sky130_fd_sc_hd__and3_2
*CAP
1 *1880:B 0.0001191
2 *1879:X 0.0001191
3 *1880:B *1824:B 0
4 *1880:B *1912:B 5.52238e-05
5 *1880:B *1915:B 5.52238e-05
6 *1880:B *514:10 0.00012401
7 *1911:A1 *1880:B 7.83587e-05
8 *1911:A2 *1880:B 5.52238e-05
9 *259:34 *1880:B 1.02504e-05
*RES
1 *1879:X *1880:B 30.3143 
*END

*D_NET *355 0.00139634
*CONN
*I *1882:A I *D sky130_fd_sc_hd__nand2_2
*I *1883:A I *D sky130_fd_sc_hd__xnor2_2
*I *1880:Y O *D sky130_fd_sc_hd__xnor2_2
*CAP
1 *1882:A 0.000128582
2 *1883:A 0.000116754
3 *1880:Y 0.000197188
4 *355:8 0.000442524
5 *1882:A *1882:B 3.19295e-05
6 *1882:A *1884:A 0
7 *1882:A *1912:A 0.00015234
8 *1882:A *1915:B 2.8266e-06
9 *1882:A *366:12 0
10 *1883:A *1882:B 4.25716e-05
11 *1883:A *1915:B 8.86911e-05
12 *355:8 *1912:B 0.000129595
13 *355:8 *366:12 5.72899e-05
14 *355:8 *386:6 6.05161e-06
*RES
1 *1880:Y *355:8 17.6214 
2 *355:8 *1883:A 16.4071 
3 *355:8 *1882:A 16.9607 
*END

*D_NET *356 0.00186601
*CONN
*I *1882:B I *D sky130_fd_sc_hd__nand2_2
*I *1883:B I *D sky130_fd_sc_hd__xnor2_2
*I *1881:Y O *D sky130_fd_sc_hd__a21oi_2
*CAP
1 *1882:B 0.000321129
2 *1883:B 0
3 *1881:Y 0.000305099
4 *356:10 0.000626228
5 *1882:B *1912:A 7.8327e-05
6 *1882:B *514:10 3.69047e-06
7 *1829:A *356:10 9.57064e-05
8 *1881:B1 *356:10 0.000177948
9 *1882:A *1882:B 3.19295e-05
10 *1883:A *1882:B 4.25716e-05
11 *263:8 *356:10 5.52302e-05
12 *304:10 *356:10 0.000128146
*RES
1 *1881:Y *356:10 21.1393 
2 *356:10 *1883:B 13.8 
3 *356:10 *1882:B 20.0321 
*END

*D_NET *357 0.000334414
*CONN
*I *1912:A I *D sky130_fd_sc_hd__nand2_2
*I *1882:Y O *D sky130_fd_sc_hd__nand2_2
*CAP
1 *1912:A 5.18735e-05
2 *1882:Y 5.18735e-05
3 *1882:A *1912:A 0.00015234
4 *1882:B *1912:A 7.8327e-05
*RES
1 *1882:Y *1912:A 29.5464 
*END

*D_NET *358 0.000225155
*CONN
*I *1884:A I *D sky130_fd_sc_hd__inv_2
*I *1883:Y O *D sky130_fd_sc_hd__xnor2_2
*CAP
1 *1884:A 6.25739e-05
2 *1883:Y 6.25739e-05
3 *1884:A *1915:B 3.34672e-05
4 *1884:A *366:12 6.65398e-05
5 *1882:A *1884:A 0
*RES
1 *1883:Y *1884:A 29.2429 
*END

*D_NET *359 0.00130074
*CONN
*I *1893:A I *D sky130_fd_sc_hd__xnor2_2
*I *1892:A I *D sky130_fd_sc_hd__nand2_2
*I *1884:Y O *D sky130_fd_sc_hd__inv_2
*CAP
1 *1893:A 6.17285e-05
2 *1892:A 0.000164803
3 *1884:Y 0.000322298
4 *359:10 0.000548829
5 *1892:A *1892:B 0
6 *1892:A *1916:A_N 0
7 *1892:A *366:12 0
8 *1892:A *368:12 0
9 *359:10 *1915:B 0.000185643
10 *359:10 *1916:A_N 0
11 *359:10 *366:12 0
12 *359:10 *386:6 1.74352e-05
13 *353:10 *1892:A 0
*RES
1 *1884:Y *359:10 18.4429 
2 *359:10 *1892:A 16.6571 
3 *359:10 *1893:A 14.7464 
*END

*D_NET *360 0.00209896
*CONN
*I *1887:B I *D sky130_fd_sc_hd__xnor2_2
*I *1886:B I *D sky130_fd_sc_hd__and2b_2
*I *1885:X O *D sky130_fd_sc_hd__and3_2
*CAP
1 *1887:B 0.000127815
2 *1886:B 0
3 *1885:X 0.000374939
4 *360:10 0.000502754
5 *1887:B *364:14 6.1684e-05
6 *360:10 *1769:B 2.32517e-05
7 *360:10 *364:14 0.00022042
8 *1836:A *360:10 1.74352e-05
9 *1836:C *360:10 4.87953e-05
10 *1887:A *1887:B 0.00013726
11 *1887:A *360:10 7.39741e-05
12 *1913:A *1887:B 1.92905e-05
13 *309:18 *360:10 0
14 *311:12 *360:10 6.05161e-06
15 *312:8 *360:10 0.000485285
*RES
1 *1885:X *360:10 23.0857 
2 *360:10 *1886:B 13.8 
3 *360:10 *1887:B 16.9429 
*END

*D_NET *361 0.00070728
*CONN
*I *1913:B I *D sky130_fd_sc_hd__or3_4
*I *1886:X O *D sky130_fd_sc_hd__and2b_2
*CAP
1 *1913:B 0.000324515
2 *1886:X 0.000324515
3 *1838:A *1913:B 3.67257e-05
4 *1838:B *1913:B 2.15245e-05
5 *1887:A *1913:B 0
*RES
1 *1886:X *1913:B 31.9393 
*END

*D_NET *362 0.000546029
*CONN
*I *1891:A I *D sky130_fd_sc_hd__xor2_2
*I *1890:A I *D sky130_fd_sc_hd__and2_4
*I *1887:Y O *D sky130_fd_sc_hd__xnor2_2
*CAP
1 *1891:A 4.63346e-05
2 *1890:A 0
3 *1887:Y 7.69721e-05
4 *362:10 0.000123307
5 *1891:A *1891:B 0.000142856
6 *1891:A *1913:C 5.33005e-05
7 *362:10 *1913:C 0.00010326
8 *362:10 *364:14 0
*RES
1 *1887:Y *362:10 19.9429 
2 *362:10 *1890:A 9.3 
3 *362:10 *1891:A 10.6571 
*END

*D_NET *363 0.000609397
*CONN
*I *1889:B1 I *D sky130_fd_sc_hd__o21a_4
*I *1888:X O *D sky130_fd_sc_hd__a211o_4
*CAP
1 *1889:B1 0.000270948
2 *1888:X 0.000270948
3 *1838:A *1889:B1 6.75007e-05
4 *1888:C1 *1889:B1 0
*RES
1 *1888:X *1889:B1 32.2429 
*END

*D_NET *364 0.0023511
*CONN
*I *1891:B I *D sky130_fd_sc_hd__xor2_2
*I *1890:B I *D sky130_fd_sc_hd__and2_4
*I *1889:X O *D sky130_fd_sc_hd__o21a_4
*CAP
1 *1891:B 0.000127132
2 *1890:B 0
3 *1889:X 0.000604721
4 *364:14 0.000731854
5 *1891:B *1913:C 1.54142e-05
6 *364:14 *1913:C 0.000232399
7 *1887:A *364:14 1.91512e-05
8 *1887:B *364:14 6.1684e-05
9 *1891:A *1891:B 0.000142856
10 *1913:A *364:14 0
11 *309:18 *364:14 0.000195471
12 *360:10 *364:14 0.00022042
13 *362:10 *364:14 0
*RES
1 *1889:X *364:14 32.1929 
2 *364:14 *1890:B 9.3 
3 *364:14 *1891:B 2.97321 
*END

*D_NET *365 0.000884033
*CONN
*I *1913:C I *D sky130_fd_sc_hd__or3_4
*I *1890:X O *D sky130_fd_sc_hd__and2_4
*CAP
1 *1913:C 0.00023983
2 *1890:X 0.00023983
3 *1887:A *1913:C 0
4 *1891:A *1913:C 5.33005e-05
5 *1891:B *1913:C 1.54142e-05
6 *362:10 *1913:C 0.00010326
7 *364:14 *1913:C 0.000232399
*RES
1 *1890:X *1913:C 32.5464 
*END

*D_NET *366 0.00442255
*CONN
*I *1893:B I *D sky130_fd_sc_hd__xnor2_2
*I *1892:B I *D sky130_fd_sc_hd__nand2_2
*I *1891:X O *D sky130_fd_sc_hd__xor2_2
*CAP
1 *1893:B 3.72704e-05
2 *1892:B 0.000230524
3 *1891:X 0.00114699
4 *366:12 0.00141479
5 *366:12 *1824:B 4.51495e-05
6 *366:12 *1912:B 0.00101809
7 *366:12 *1914:B 0
8 *366:12 *386:6 0.000359997
9 *1882:A *366:12 0
10 *1884:A *366:12 6.65398e-05
11 *1892:A *1892:B 0
12 *1892:A *366:12 0
13 *1911:B1 *366:12 4.59075e-05
14 *355:8 *366:12 5.72899e-05
15 *359:10 *366:12 0
*RES
1 *1891:X *366:12 36.4071 
2 *366:12 *1892:B 17.7107 
3 *366:12 *1893:B 14.3357 
*END

*D_NET *367 0.00021708
*CONN
*I *1910:B1 I *D sky130_fd_sc_hd__o21a_2
*I *1892:Y O *D sky130_fd_sc_hd__nand2_2
*CAP
1 *1910:B1 8.84515e-05
2 *1892:Y 8.84515e-05
3 *1910:B1 *384:10 4.01768e-05
*RES
1 *1892:Y *1910:B1 20.3679 
*END

*D_NET *368 0.000775414
*CONN
*I *1894:B I *D sky130_fd_sc_hd__xor2_2
*I *1910:A2 I *D sky130_fd_sc_hd__o21a_2
*I *1893:Y O *D sky130_fd_sc_hd__xnor2_2
*CAP
1 *1894:B 9.89328e-05
2 *1910:A2 0
3 *1893:Y 0.000161578
4 *368:12 0.00026051
5 *1894:B *384:10 2.89114e-05
6 *368:12 *384:10 0.000126439
7 *1892:A *368:12 0
8 *1894:A *1894:B 9.90431e-05
*RES
1 *1893:Y *368:12 21.4964 
2 *368:12 *1910:A2 9.3 
3 *368:12 *1894:B 2.13393 
*END

*D_NET *369 0.00270751
*CONN
*I *1901:A I *D sky130_fd_sc_hd__xor2_2
*I *1900:A I *D sky130_fd_sc_hd__and2_2
*I *1894:X O *D sky130_fd_sc_hd__xor2_2
*CAP
1 *1901:A 0
2 *1900:A 9.32239e-05
3 *1894:X 0.00105707
4 *369:12 0.00115029
5 *1900:A *1901:B 8.98897e-05
6 *1900:A *374:10 5.80706e-06
7 *369:12 *1920:B 5.37963e-05
8 *369:12 *1932:A_N 6.44515e-05
9 *369:12 *1932:B 2.55587e-05
10 *369:12 *1933:B 0.000167422
*RES
1 *1894:X *369:12 24.675 
2 *369:12 *1900:A 20.55 
3 *369:12 *1901:A 9.3 
*END

*D_NET *370 0.00115412
*CONN
*I *1896:B I *D sky130_fd_sc_hd__xnor2_2
*I *1895:X O *D sky130_fd_sc_hd__and3_2
*CAP
1 *1896:B 0.000400484
2 *1895:X 0.000400484
3 *1896:B *1898:C1 0
4 *1896:B *470:16 9.33978e-07
5 *1849:A2 *1896:B 6.5185e-05
6 *1850:C *1896:B 2.59355e-05
7 *1851:A *1896:B 0.000145783
8 *275:25 *1896:B 3.14193e-05
9 *325:21 *1896:B 8.39e-05
*RES
1 *1895:X *1896:B 34.6714 
*END

*D_NET *371 0.00110067
*CONN
*I *1899:A I *D sky130_fd_sc_hd__xnor2_2
*I *1898:C1 I *D sky130_fd_sc_hd__o211ai_2
*I *1896:Y O *D sky130_fd_sc_hd__xnor2_2
*CAP
1 *1899:A 8.06859e-05
2 *1898:C1 0.000188286
3 *1896:Y 2.61224e-05
4 *371:6 0.000295094
5 *1898:C1 *1919:A 0.000369818
6 *1849:A2 *1898:C1 0
7 *1896:B *1898:C1 0
8 *319:10 *1899:A 9.7659e-05
9 *319:10 *371:6 2.89016e-05
10 *327:14 *1898:C1 1.41029e-05
*RES
1 *1896:Y *371:6 9.83571 
2 *371:6 *1898:C1 23.2821 
3 *371:6 *1899:A 11.0679 
*END

*D_NET *372 0.000240232
*CONN
*I *1899:B I *D sky130_fd_sc_hd__xnor2_2
*I *1897:Y O *D sky130_fd_sc_hd__o21ai_2
*CAP
1 *1899:B 7.8166e-05
2 *1897:Y 7.8166e-05
3 *1899:B *1919:A 8.39e-05
4 *352:13 *1899:B 0
*RES
1 *1897:Y *1899:B 29.5464 
*END

*D_NET *373 0.00201527
*CONN
*I *1919:A I *D sky130_fd_sc_hd__nand2_2
*I *1898:Y O *D sky130_fd_sc_hd__o211ai_2
*CAP
1 *1919:A 0.000716698
2 *1898:Y 0.000716698
3 *1919:A *374:10 0
4 *1897:A2 *1919:A 0
5 *1898:C1 *1919:A 0.000369818
6 *1899:B *1919:A 8.39e-05
7 *327:14 *1919:A 0.000128154
*RES
1 *1898:Y *1919:A 41.9214 
*END

*D_NET *374 0.00134898
*CONN
*I *1901:B I *D sky130_fd_sc_hd__xor2_2
*I *1900:B I *D sky130_fd_sc_hd__and2_2
*I *1899:Y O *D sky130_fd_sc_hd__xnor2_2
*CAP
1 *1901:B 5.92755e-05
2 *1900:B 0
3 *1899:Y 0.000426901
4 *374:10 0.000486177
5 *1901:B *1924:B1 0.000129868
6 *1900:A *1901:B 8.98897e-05
7 *1900:A *374:10 5.80706e-06
8 *1919:A *374:10 0
9 *2083:A *1901:B 0
10 *319:10 *374:10 0.000151061
11 *352:13 *1901:B 0
12 *352:13 *374:10 0
*RES
1 *1899:Y *374:10 20.7643 
2 *374:10 *1900:B 13.8 
3 *374:10 *1901:B 6.75 
*END

*D_NET *375 0.000622394
*CONN
*I *1924:B1 I *D sky130_fd_sc_hd__a21oi_2
*I *1900:X O *D sky130_fd_sc_hd__and2_2
*CAP
1 *1924:B1 0.000246263
2 *1900:X 0.000246263
3 *1924:B1 *1924:A1 0
4 *1924:B1 *1933:B 0
5 *1901:B *1924:B1 0.000129868
6 *2083:A *1924:B1 0
*RES
1 *1900:X *1924:B1 32.2071 
*END

*D_NET *376 0.000685682
*CONN
*I *2084:A I *D sky130_fd_sc_hd__buf_2
*I *1902:B I *D sky130_fd_sc_hd__xnor2_2
*I *1901:X O *D sky130_fd_sc_hd__xor2_2
*CAP
1 *2084:A 0.000145202
2 *1902:B 0.000127459
3 *1901:X 0
4 *376:4 0.000272662
5 *2084:A *1924:A1 2.65105e-05
6 *2083:A *1902:B 5.57914e-05
7 *2083:A *2084:A 5.52302e-05
8 *352:13 *1902:B 2.8266e-06
*RES
1 *1901:X *376:4 9.3 
2 *376:4 *1902:B 20.7821 
3 *376:4 *2084:A 11.9071 
*END

*D_NET *377 0.000811652
*CONN
*I *1904:C_N I *D sky130_fd_sc_hd__or3b_4
*I *1903:B1_N I *D sky130_fd_sc_hd__o21ba_2
*I *1902:Y O *D sky130_fd_sc_hd__xnor2_2
*CAP
1 *1904:C_N 0.000136933
2 *1903:B1_N 0
3 *1902:Y 0.000227399
4 *377:6 0.000364332
5 *1904:C_N *378:8 3.69047e-06
6 *1903:A1 *1904:C_N 7.92975e-05
7 *1904:B *1904:C_N 0
*RES
1 *1902:Y *377:6 13.1214 
2 *377:6 *1903:B1_N 9.3 
3 *377:6 *1904:C_N 21.0857 
*END

*D_NET *378 0.00196547
*CONN
*I *1927:B1 I *D sky130_fd_sc_hd__a21o_4
*I *1905:A_N I *D sky130_fd_sc_hd__nand2b_2
*I *1903:X O *D sky130_fd_sc_hd__o21ba_2
*CAP
1 *1927:B1 0.000149461
2 *1905:A_N 0.0002023
3 *1903:X 0.000243441
4 *378:8 0.000595202
5 *1905:A_N *1927:A2 1.78353e-05
6 *1927:B1 *1927:A2 4.07257e-05
7 *1854:B *1905:A_N 0
8 *1865:B *1905:A_N 0.00039229
9 *1903:A1 *378:8 1.39841e-05
10 *1903:A2 *378:8 7.77652e-05
11 *1904:B *1905:A_N 0.000202835
12 *1904:C_N *378:8 3.69047e-06
13 *329:8 *1905:A_N 0
14 *331:8 *1905:A_N 2.59355e-05
*RES
1 *1903:X *378:8 16.8 
2 *378:8 *1905:A_N 19.925 
3 *378:8 *1927:B1 16.6393 
*END

*D_NET *379 0.00164973
*CONN
*I *1927:A2 I *D sky130_fd_sc_hd__a21o_4
*I *1905:B I *D sky130_fd_sc_hd__nand2b_2
*I *1904:X O *D sky130_fd_sc_hd__or3b_4
*CAP
1 *1927:A2 0.000176696
2 *1905:B 9.35726e-05
3 *1904:X 0.000193891
4 *379:10 0.000464159
5 *1905:B *1907:A 9.34004e-05
6 *1927:A2 *1907:A 0.000123912
7 *1927:A2 *1927:A1 0
8 *1927:A2 *1928:B 0
9 *1865:A *1905:B 0.000126439
10 *1865:A *1927:A2 0.000218486
11 *1866:A *1905:B 5.83233e-05
12 *1904:A *379:10 4.22908e-05
13 *1905:A_N *1927:A2 1.78353e-05
14 *1927:B1 *1927:A2 4.07257e-05
*RES
1 *1904:X *379:10 16.8179 
2 *379:10 *1905:B 16.5857 
3 *379:10 *1927:A2 19.0857 
*END

*D_NET *380 0.000861267
*CONN
*I *1907:A I *D sky130_fd_sc_hd__xnor2_2
*I *1905:Y O *D sky130_fd_sc_hd__nand2b_2
*CAP
1 *1907:A 0.000203486
2 *1905:Y 0.000203486
3 *1907:A *1927:A1 0.000117144
4 *1907:A *381:8 0.0001098
5 *1866:A *1907:A 1.00375e-05
6 *1905:B *1907:A 9.34004e-05
7 *1927:A2 *1907:A 0.000123912
*RES
1 *1905:Y *1907:A 33.8321 
*END

*D_NET *381 0.00283932
*CONN
*I *1927:A1 I *D sky130_fd_sc_hd__a21o_4
*I *2088:A I *D sky130_fd_sc_hd__buf_6
*I *1906:X O *D sky130_fd_sc_hd__a21o_4
*CAP
1 *1927:A1 0.000350899
2 *2088:A 6.71205e-05
3 *1906:X 0.00041612
4 *381:8 0.00083414
5 *1927:A1 *1907:B 6.80593e-05
6 *1927:A1 *2078:A 0
7 *381:8 *2077:A 7.30398e-05
8 *1819:A1 *381:8 0
9 *1866:A *381:8 0
10 *1906:B1 *381:8 7.08001e-05
11 *1907:A *1927:A1 0.000117144
12 *1907:A *381:8 0.0001098
13 *1927:A2 *1927:A1 0
14 *340:14 *381:8 0.000638799
15 *344:14 *381:8 9.34004e-05
*RES
1 *1906:X *381:8 26.3714 
2 *381:8 *2088:A 14.7464 
3 *381:8 *1927:A1 20.9607 
*END

*D_NET *382 0.00150639
*CONN
*I *1909:B I *D sky130_fd_sc_hd__nand2_2
*I *1908:X O *D sky130_fd_sc_hd__a21o_2
*CAP
1 *1909:B 0.00054014
2 *1908:X 0.00054014
3 *1861:A *1909:B 0.000126416
4 *1861:B *1909:B 0.000124749
5 *1872:B *1909:B 3.4689e-05
6 *1908:B1 *1909:B 2.68557e-05
7 *335:12 *1909:B 2.46518e-05
8 *335:21 *1909:B 3.37853e-05
9 *337:10 *1909:B 5.4959e-05
*RES
1 *1908:X *1909:B 36.4929 
*END

*D_NET *383 0.00943052
*CONN
*I *1923:A I *D sky130_fd_sc_hd__xor2_2
*I *1922:A I *D sky130_fd_sc_hd__and2_4
*I *1909:Y O *D sky130_fd_sc_hd__nand2_2
*CAP
1 *1923:A 0.000223632
2 *1922:A 2.23854e-05
3 *1909:Y 0.000624548
4 *383:16 0.00163201
5 *383:10 0.00201054
6 *1923:A *1923:B 0.000169572
7 *1923:A *1932:B 0.000153054
8 *1923:A *2089:A 2.89016e-05
9 *1923:A *395:12 5.26184e-05
10 *1923:A *470:10 0
11 *383:10 *1678:A 0
12 *383:10 *1679:A1 0.000216098
13 *383:10 *1934:A1 7.27028e-05
14 *383:10 *2072:A 0
15 *383:10 *446:38 0
16 *383:10 *447:35 6.05207e-05
17 *383:10 *447:113 2.88619e-05
18 *383:10 *450:10 0
19 *383:10 *450:19 0
20 *383:10 *450:38 0
21 *383:10 *467:27 5.53052e-05
22 *383:16 *1720:A 0
23 *383:16 *1720:B 0.0002005
24 *383:16 *1801:A1 0.00015134
25 *383:16 *2089:A 2.44318e-05
26 *383:16 *395:12 2.89114e-05
27 *383:16 *450:38 0
28 *383:16 *451:10 0
29 *383:16 *451:32 0
30 *383:16 *451:60 0.000162186
31 *383:16 *451:71 0.000246064
32 *383:16 *452:10 0
33 *383:16 *467:27 2.04825e-05
34 *383:16 *467:49 0.000231955
35 *383:16 *467:60 0.000209491
36 *383:16 *467:71 0.000117189
37 *383:16 *467:86 0.000311502
38 *383:16 *469:16 0.000505335
39 *383:16 *470:10 0.000270317
40 *383:16 *470:16 7.90634e-05
41 *383:16 *470:37 0.000126864
42 *383:16 *470:39 0.000116038
43 *1718:B *383:16 0.000149911
44 *1800:A1 *383:16 0
45 *1800:A2 *383:16 5.9483e-05
46 *1802:C *383:16 1.41029e-05
47 *1849:A1 *383:16 0.000199698
48 *1849:A2 *383:16 0
49 *1850:C *383:16 0.000148911
50 *1851:A *383:16 2.00751e-05
51 *1934:B1 *383:10 0.00015234
52 *156:8 *383:10 0.000219193
53 *275:25 *383:16 0.000116891
54 *276:19 *383:16 6.07532e-05
55 *277:10 *383:16 7.50505e-05
56 *325:21 *383:16 6.16864e-05
*RES
1 *1909:Y *383:10 28.5768 
2 *383:10 *383:16 44.8839 
3 *383:16 *1922:A 9.72857 
4 *383:16 *1923:A 24.1214 
*END

*D_NET *384 0.00123496
*CONN
*I *1916:A_N I *D sky130_fd_sc_hd__and2b_2
*I *1917:B I *D sky130_fd_sc_hd__xnor2_2
*I *1910:X O *D sky130_fd_sc_hd__o21a_2
*CAP
1 *1916:A_N 0.000207091
2 *1917:B 0
3 *1910:X 0.000238679
4 *384:10 0.00044577
5 *1916:A_N *1916:B 3.30352e-05
6 *1916:A_N *1917:A 8.15939e-05
7 *1916:A_N *389:8 3.32631e-05
8 *1892:A *1916:A_N 0
9 *1894:B *384:10 2.89114e-05
10 *1910:B1 *384:10 4.01768e-05
11 *359:10 *1916:A_N 0
12 *368:12 *384:10 0.000126439
*RES
1 *1910:X *384:10 17.6214 
2 *384:10 *1917:B 13.8 
3 *384:10 *1916:A_N 17.8179 
*END

*D_NET *385 0.00198452
*CONN
*I *1912:B I *D sky130_fd_sc_hd__nand2_2
*I *1911:X O *D sky130_fd_sc_hd__a21o_2
*CAP
1 *1912:B 0.000229796
2 *1911:X 0.000229796
3 *1880:B *1912:B 5.52238e-05
4 *1911:A1 *1912:B 1.74352e-05
5 *1911:A2 *1912:B 6.26959e-05
6 *1911:B1 *1912:B 0.00010096
7 *303:12 *1912:B 0.000140933
8 *355:8 *1912:B 0.000129595
9 *366:12 *1912:B 0.00101809
*RES
1 *1911:X *1912:B 28.6 
*END

*D_NET *386 0.00134159
*CONN
*I *1915:A I *D sky130_fd_sc_hd__xor2_2
*I *1914:A I *D sky130_fd_sc_hd__and2_2
*I *1912:Y O *D sky130_fd_sc_hd__nand2_2
*CAP
1 *1915:A 0
2 *1914:A 0.000129533
3 *1912:Y 0.000165973
4 *386:6 0.000295506
5 *1914:A *1914:B 0.000176234
6 *386:6 *1915:B 0.000190858
7 *355:8 *386:6 6.05161e-06
8 *359:10 *386:6 1.74352e-05
9 *366:12 *386:6 0.000359997
*RES
1 *1912:Y *386:6 14.3536 
2 *386:6 *1914:A 21.0857 
3 *386:6 *1915:A 9.3 
*END

*D_NET *387 0.00483273
*CONN
*I *1914:B I *D sky130_fd_sc_hd__and2_2
*I *1915:B I *D sky130_fd_sc_hd__xor2_2
*I *1913:X O *D sky130_fd_sc_hd__or3_4
*CAP
1 *1914:B 0.000116076
2 *1915:B 0.00164429
3 *1913:X 0.00152821
4 *1915:B *1823:B1 4.13595e-05
5 *1915:B *1823:B2 5.68722e-05
6 *1915:B *1824:A 3.55336e-05
7 *1915:B *445:73 4.18895e-05
8 *1915:B *445:87 0.000343356
9 *1915:B *514:42 2.15245e-05
10 *1915:B *514:51 0.000225141
11 *1827:B *1915:B 4.55397e-05
12 *1880:B *1915:B 5.52238e-05
13 *1882:A *1915:B 2.8266e-06
14 *1883:A *1915:B 8.86911e-05
15 *1884:A *1915:B 3.34672e-05
16 *1914:A *1914:B 0.000176234
17 *359:10 *1915:B 0.000185643
18 *366:12 *1914:B 0
19 *386:6 *1915:B 0.000190858
*RES
1 *1913:X *1915:B 44.0946 
2 *1915:B *1914:B 21.1571 
*END

*D_NET *388 0.00310113
*CONN
*I *1931:A I *D sky130_fd_sc_hd__or4_4
*I *1930:A1 I *D sky130_fd_sc_hd__o22a_2
*I *1914:X O *D sky130_fd_sc_hd__and2_2
*CAP
1 *1931:A 0.000141683
2 *1930:A1 0.000116484
3 *1914:X 0.00102107
4 *388:10 0.00127924
5 *1930:A1 *1920:B 0
6 *1930:A1 *1921:B 9.25014e-06
7 *1930:A1 *1930:A2 0.000150618
8 *1930:A1 *1931:B 7.22594e-05
9 *1931:A *1931:B 0.000228558
10 *1931:A *1931:C 2.90314e-05
11 *1931:A *390:8 1.58163e-05
12 *1931:A *470:10 3.69047e-06
13 *388:10 *1931:B 3.34366e-05
14 *388:10 *1937:B1 0
*RES
1 *1914:X *388:10 26.2464 
2 *388:10 *1930:A1 16.6571 
3 *388:10 *1931:A 16.8 
*END

*D_NET *389 0.000888831
*CONN
*I *1916:B I *D sky130_fd_sc_hd__and2b_2
*I *1917:A I *D sky130_fd_sc_hd__xnor2_2
*I *1915:X O *D sky130_fd_sc_hd__xor2_2
*CAP
1 *1916:B 0.000128917
2 *1917:A 0.000134282
3 *1915:X 0.00010727
4 *389:8 0.00037047
5 *1916:A_N *1916:B 3.30352e-05
6 *1916:A_N *1917:A 8.15939e-05
7 *1916:A_N *389:8 3.32631e-05
*RES
1 *1915:X *389:8 11.0857 
2 *389:8 *1917:A 21.1571 
3 *389:8 *1916:B 11.4786 
*END

*D_NET *390 0.00181552
*CONN
*I *1931:B I *D sky130_fd_sc_hd__or4_4
*I *1930:A2 I *D sky130_fd_sc_hd__o22a_2
*I *1916:X O *D sky130_fd_sc_hd__and2b_2
*CAP
1 *1931:B 0.000153182
2 *1930:A2 5.40433e-05
3 *1916:X 0.000402219
4 *390:8 0.000609444
5 *1930:A2 *1931:D 5.84171e-05
6 *1930:A2 *396:10 1.99099e-05
7 *1931:B *1931:C 0
8 *1931:B *1931:D 1.76135e-05
9 *1931:B *1937:B1 0
10 *1930:A1 *1930:A2 0.000150618
11 *1930:A1 *1931:B 7.22594e-05
12 *1931:A *1931:B 0.000228558
13 *1931:A *390:8 1.58163e-05
14 *388:10 *1931:B 3.34366e-05
*RES
1 *1916:X *390:8 18.4429 
2 *390:8 *1930:A2 15.7464 
3 *390:8 *1931:B 17.3179 
*END

*D_NET *391 0.000798244
*CONN
*I *1921:B I *D sky130_fd_sc_hd__xor2_2
*I *1920:A I *D sky130_fd_sc_hd__and2_2
*I *1917:Y O *D sky130_fd_sc_hd__xnor2_2
*CAP
1 *1921:B 0.00025494
2 *1920:A 0
3 *1917:Y 8.07586e-05
4 *391:6 0.000335698
5 *1921:B *1920:B 5.35516e-05
6 *1921:B *393:12 3.51442e-05
7 *1921:B *394:8 2.89016e-05
8 *1921:B *396:10 0
9 *1930:A1 *1921:B 9.25014e-06
*RES
1 *1917:Y *391:6 10.6571 
2 *391:6 *1920:A 9.3 
3 *391:6 *1921:B 13.7321 
*END

*D_NET *392 0.0002291
*CONN
*I *1919:B I *D sky130_fd_sc_hd__nand2_2
*I *1918:X O *D sky130_fd_sc_hd__a21o_2
*CAP
1 *1919:B 0.00011455
2 *1918:X 0.00011455
3 *1919:B *470:10 0
*RES
1 *1918:X *1919:B 29.5464 
*END

*D_NET *393 0.00142266
*CONN
*I *1920:B I *D sky130_fd_sc_hd__and2_2
*I *1921:A I *D sky130_fd_sc_hd__xor2_2
*I *1919:Y O *D sky130_fd_sc_hd__nand2_2
*CAP
1 *1920:B 0.000230892
2 *1921:A 0
3 *1919:Y 0.000376748
4 *393:12 0.00060764
5 *393:12 *396:10 6.48863e-05
6 *393:12 *470:10 0
7 *1921:B *1920:B 5.35516e-05
8 *1921:B *393:12 3.51442e-05
9 *1930:A1 *1920:B 0
10 *369:12 *1920:B 5.37963e-05
*RES
1 *1919:Y *393:12 24.4429 
2 *393:12 *1921:A 9.3 
3 *393:12 *1920:B 22.7464 
*END

*D_NET *394 0.000931145
*CONN
*I *1931:C I *D sky130_fd_sc_hd__or4_4
*I *1930:B1 I *D sky130_fd_sc_hd__o22a_2
*I *1920:X O *D sky130_fd_sc_hd__and2_2
*CAP
1 *1931:C 0.000107786
2 *1930:B1 0
3 *1920:X 0.000197478
4 *394:8 0.000305264
5 *1931:C *1931:D 8.06427e-05
6 *1931:C *1932:A_N 5.83304e-05
7 *1931:C *1937:B1 0.000117903
8 *1931:C *396:10 5.80706e-06
9 *1921:B *394:8 2.89016e-05
10 *1931:A *1931:C 2.90314e-05
11 *1931:B *1931:C 0
*RES
1 *1920:X *394:8 12.3179 
2 *394:8 *1930:B1 9.3 
3 *394:8 *1931:C 21.3759 
*END

*D_NET *395 0.000486976
*CONN
*I *2089:A I *D sky130_fd_sc_hd__buf_2
*I *1922:B I *D sky130_fd_sc_hd__and2_4
*I *1921:X O *D sky130_fd_sc_hd__xor2_2
*CAP
1 *2089:A 4.40688e-05
2 *1922:B 0
3 *1921:X 9.16709e-05
4 *395:12 0.00013574
5 *395:12 *470:10 8.06331e-05
6 *1923:A *2089:A 2.89016e-05
7 *1923:A *395:12 5.26184e-05
8 *383:16 *2089:A 2.44318e-05
9 *383:16 *395:12 2.89114e-05
*RES
1 *1921:X *395:12 20.7821 
2 *395:12 *1922:B 9.3 
3 *395:12 *2089:A 10.2464 
*END

*D_NET *396 0.000965786
*CONN
*I *1931:D I *D sky130_fd_sc_hd__or4_4
*I *1930:B2 I *D sky130_fd_sc_hd__o22a_2
*I *1922:X O *D sky130_fd_sc_hd__and2_4
*CAP
1 *1931:D 6.20081e-05
2 *1930:B2 0
3 *1922:X 0.000260265
4 *396:10 0.000322273
5 *396:10 *1932:A_N 7.39637e-05
6 *396:10 *470:10 0
7 *1921:B *396:10 0
8 *1930:A2 *1931:D 5.84171e-05
9 *1930:A2 *396:10 1.99099e-05
10 *1931:B *1931:D 1.76135e-05
11 *1931:C *1931:D 8.06427e-05
12 *1931:C *396:10 5.80706e-06
13 *393:12 *396:10 6.48863e-05
*RES
1 *1922:X *396:10 19.425 
2 *396:10 *1930:B2 13.8 
3 *396:10 *1931:D 15.7464 
*END

*D_NET *397 0.00169299
*CONN
*I *1926:A I *D sky130_fd_sc_hd__xnor2_2
*I *1925:B I *D sky130_fd_sc_hd__and2b_2
*I *1923:X O *D sky130_fd_sc_hd__xor2_2
*CAP
1 *1926:A 0.000101535
2 *1925:B 0.000149864
3 *1923:X 0.000404272
4 *397:6 0.000655671
5 *1925:B *1924:A2 0.000188586
6 *1925:B *1925:A_N 5.7661e-06
7 *1926:A *1924:A2 7.43578e-06
8 *1926:A *1925:A_N 5.52238e-05
9 *1926:A *1926:B 6.74911e-05
10 *1926:A *1929:B1 0
11 *397:6 *1925:A_N 5.71472e-05
*RES
1 *1923:X *397:6 15.5857 
2 *397:6 *1925:B 12.5143 
3 *397:6 *1926:A 20.7821 
*END

*D_NET *398 0.000581641
*CONN
*I *1925:A_N I *D sky130_fd_sc_hd__and2b_2
*I *1926:B I *D sky130_fd_sc_hd__xnor2_2
*I *1924:Y O *D sky130_fd_sc_hd__a21oi_2
*CAP
1 *1925:A_N 0.000118193
2 *1926:B 7.10953e-05
3 *1924:Y 0
4 *398:4 0.000189289
5 *1925:A_N *1924:A2 1.74352e-05
6 *1926:B *1933:B 0
7 *1925:B *1925:A_N 5.7661e-06
8 *1926:A *1925:A_N 5.52238e-05
9 *1926:A *1926:B 6.74911e-05
10 *397:6 *1925:A_N 5.71472e-05
*RES
1 *1924:Y *398:4 9.3 
2 *398:4 *1926:B 19.9429 
3 *398:4 *1925:A_N 11.0857 
*END

*D_NET *399 0.000693859
*CONN
*I *1929:B1 I *D sky130_fd_sc_hd__a21o_4
*I *1925:X O *D sky130_fd_sc_hd__and2b_2
*CAP
1 *1929:B1 0.000297928
2 *1925:X 0.000297928
3 *1929:B1 *1929:A1 0
4 *1929:B1 *1929:A2 9.80029e-05
5 *1926:A *1929:B1 0
*RES
1 *1925:X *1929:B1 33.3321 
*END

*D_NET *400 0.000386826
*CONN
*I *1928:A I *D sky130_fd_sc_hd__xor2_2
*I *1929:A2 I *D sky130_fd_sc_hd__a21o_4
*I *1926:Y O *D sky130_fd_sc_hd__xnor2_2
*CAP
1 *1928:A 5.63185e-05
2 *1929:A2 8.80931e-05
3 *1926:Y 0.000144412
4 *1929:A2 *1929:A1 0
5 *1929:B1 *1929:A2 9.80029e-05
*RES
1 *1926:Y *1929:A2 29.85 
2 *1926:Y *1928:A 19.5464 
*END

*D_NET *401 0.00117468
*CONN
*I *1929:A1 I *D sky130_fd_sc_hd__a21o_4
*I *1928:B I *D sky130_fd_sc_hd__xor2_2
*I *1927:X O *D sky130_fd_sc_hd__a21o_4
*CAP
1 *1929:A1 0.000296676
2 *1928:B 0.00058734
3 *1927:X 0.000290664
4 *1928:B *1924:A2 0
5 *1929:A1 *2079:A 0
6 *1927:A2 *1928:B 0
7 *1929:A2 *1929:A1 0
8 *1929:B1 *1929:A1 0
*RES
1 *1927:X *1928:B 23.4518 
2 *1928:B *1929:A1 23.3357 
*END

*D_NET *402 0.00191121
*CONN
*I *1933:A I *D sky130_fd_sc_hd__xor2_2
*I *1937:A1 I *D sky130_fd_sc_hd__a21o_2
*I *1929:X O *D sky130_fd_sc_hd__a21o_4
*CAP
1 *1933:A 0.000127508
2 *1937:A1 0.000505329
3 *1929:X 0.000129912
4 *402:6 0.000762749
5 *1933:A *2080:A 0
6 *1937:A1 *2080:A 0.000142856
7 *1937:A1 *2081:A 7.72233e-05
8 y[8] *1937:A1 9.77274e-05
9 y[9] *1937:A1 6.79057e-05
*RES
1 *1929:X *402:6 11.4786 
2 *402:6 *1937:A1 19.3 
3 *402:6 *1933:A 20.55 
*END

*D_NET *403 0.00151289
*CONN
*I *1937:B1 I *D sky130_fd_sc_hd__a21o_2
*I *1932:A_N I *D sky130_fd_sc_hd__and2b_2
*I *1930:X O *D sky130_fd_sc_hd__o22a_2
*CAP
1 *1937:B1 0.000204225
2 *1932:A_N 0.000160133
3 *1930:X 0
4 *403:6 0.000364359
5 *1932:A_N *470:10 0.00025263
6 *1937:B1 *1932:B 0
7 *1937:B1 *1937:A2 8.15939e-05
8 *1937:B1 *2081:A 5.52238e-05
9 *1937:B1 *470:10 8.00806e-05
10 *1931:B *1937:B1 0
11 *1931:C *1932:A_N 5.83304e-05
12 *1931:C *1937:B1 0.000117903
13 *2055:A *1937:B1 0
14 *369:12 *1932:A_N 6.44515e-05
15 *388:10 *1937:B1 0
16 *396:10 *1932:A_N 7.39637e-05
*RES
1 *1930:X *403:6 13.8 
2 *403:6 *1932:A_N 18.7286 
3 *403:6 *1937:B1 18.7107 
*END

*D_NET *404 0.000975565
*CONN
*I *1932:B I *D sky130_fd_sc_hd__and2b_2
*I *1937:A2 I *D sky130_fd_sc_hd__a21o_2
*I *1931:X O *D sky130_fd_sc_hd__or4_4
*CAP
1 *1932:B 0.000251862
2 *1937:A2 6.04772e-05
3 *1931:X 0.000312339
4 *1932:B *1923:B 1.00375e-05
5 *1932:B *470:10 0
6 *1923:A *1932:B 0.000153054
7 *1937:B1 *1932:B 0
8 *1937:B1 *1937:A2 8.15939e-05
9 *2055:A *1937:A2 8.06427e-05
10 *369:12 *1932:B 2.55587e-05
*RES
1 *1931:X *1937:A2 29.5464 
2 *1931:X *1932:B 32.6179 
*END

*D_NET *405 0.00123919
*CONN
*I *1933:B I *D sky130_fd_sc_hd__xor2_2
*I *1932:X O *D sky130_fd_sc_hd__and2b_2
*CAP
1 *1933:B 0.000535884
2 *1932:X 0.000535884
3 *1933:B *1924:A1 0
4 *1924:B1 *1933:B 0
5 *1926:B *1933:B 0
6 *369:12 *1933:B 0.000167422
*RES
1 *1932:X *1933:B 26.6036 
*END

*D_NET *406 0.000343068
*CONN
*I *1935:B I *D sky130_fd_sc_hd__nor2_2
*I *1934:Y O *D sky130_fd_sc_hd__a21oi_2
*CAP
1 *1935:B 0.000115219
2 *1934:Y 0.000115219
3 *1935:B *446:54 0.00011263
*RES
1 *1934:Y *1935:B 20.7964 
*END

*D_NET *407 0.00620507
*CONN
*I *1965:A0 I *D sky130_fd_sc_hd__mux2_1
*I *1944:B I *D sky130_fd_sc_hd__and2_2
*I *1943:X O *D sky130_fd_sc_hd__and2_2
*CAP
1 *1965:A0 0.000512133
2 *1944:B 0.000107144
3 *1943:X 0.00285027
4 *407:12 0.00244528
5 *1944:B *1939:B 0
6 *1965:A0 *1602:A 3.19917e-05
7 *1965:A0 *1943:B 1.58213e-06
8 *1965:A0 *1950:B1 0
9 *1965:A0 *2039:A 0
10 *1965:A0 *419:24 7.17932e-05
11 *1965:A0 *419:33 0.000131472
12 *1965:A0 *419:46 5.33978e-05
13 *1965:A0 *491:16 0
14 *2004:D *1965:A0 0
*RES
1 *1943:X *407:12 45.7464 
2 *407:12 *1944:B 19.9429 
3 *1943:X *1965:A0 36.8679 
*END

*D_NET *408 0.00388165
*CONN
*I *1956:A1 I *D sky130_fd_sc_hd__o21a_2
*I *1953:C I *D sky130_fd_sc_hd__nor3_2
*I *1952:X O *D sky130_fd_sc_hd__or4_2
*CAP
1 *1956:A1 0.000176865
2 *1953:C 0
3 *1952:X 0.00101676
4 *408:16 0.00119363
5 *1956:A1 *1949:A 2.22419e-05
6 *1956:A1 *1956:A2 5.33005e-05
7 *1956:A1 *1956:B1 5.6795e-05
8 *1956:A1 *491:35 0.000171485
9 *408:16 *1949:B 0.000271345
10 *408:16 *1952:B 0.000264465
11 *408:16 *1952:D 0
12 *408:16 *1953:B 6.29917e-05
13 *408:16 *1964:C 0.000221055
14 *408:16 *418:67 0
15 *408:16 *425:14 1.21289e-05
16 *408:16 *429:14 4.7236e-05
17 *408:16 *491:35 5.59013e-05
18 *408:16 *493:10 0
19 *408:16 *493:88 0.000232973
20 *2008:D *1956:A1 2.24804e-05
*RES
1 *1952:X *408:16 41.0143 
2 *408:16 *1953:C 13.8 
3 *408:16 *1956:A1 17.7286 
*END

*D_NET *409 0.00537474
*CONN
*I *1964:D_N I *D sky130_fd_sc_hd__or4b_2
*I *1954:B I *D sky130_fd_sc_hd__nor2_2
*I *1953:Y O *D sky130_fd_sc_hd__nor3_2
*CAP
1 *1964:D_N 0
2 *1954:B 0
3 *1953:Y 0.000375951
4 *409:38 0.0014369
5 *409:8 0.00181285
6 *409:8 *1953:B 9.90431e-05
7 *409:8 *1964:A 3.01793e-05
8 *409:8 *1964:C 1.55885e-05
9 *409:8 *1965:S 2.89767e-05
10 *409:38 *1955:A 0.000365268
11 *409:38 *1961:A0 0.00041168
12 *409:38 *1961:A1 2.85321e-05
13 *409:38 *1961:S 5.49995e-05
14 *409:38 *1962:B 3.84048e-05
15 *409:38 *1963:A_N 4.71712e-05
16 *409:38 *478:45 4.13617e-05
17 *1981:D *409:38 0.000161664
18 *2061:A *409:38 8.16443e-05
19 *64:20 *409:38 0.000344531
*RES
1 *1953:Y *409:8 14.2643 
2 *409:8 *409:38 49.1368 
3 *409:38 *1954:B 9.3 
4 *409:8 *1964:D_N 9.3 
*END

*D_NET *410 0.00143118
*CONN
*I *1956:A2 I *D sky130_fd_sc_hd__o21a_2
*I *1964:B I *D sky130_fd_sc_hd__or4b_2
*I *1955:X O *D sky130_fd_sc_hd__or2_2
*CAP
1 *1956:A2 8.62371e-05
2 *1964:B 0.000151831
3 *1955:X 0.000145826
4 *410:10 0.000383895
5 *1956:A2 *1956:B1 2.24718e-05
6 *1964:B *1964:A 9.77423e-05
7 *1964:B *2002:CLK 1.00332e-05
8 *1964:B *419:91 0.000150103
9 *410:10 *2002:CLK 0.000137548
10 *1956:A1 *1956:A2 5.33005e-05
11 *1982:D *1956:A2 5.50052e-05
12 *2008:D *1956:A2 9.84673e-05
13 *2008:D *410:10 3.87228e-05
*RES
1 *1955:X *410:10 16.6929 
2 *410:10 *1964:B 16.6929 
3 *410:10 *1956:A2 15.9786 
*END

*D_NET *411 0.0019315
*CONN
*I *1958:B I *D sky130_fd_sc_hd__and2_2
*I *1957:X O *D sky130_fd_sc_hd__mux2_1
*CAP
1 *1958:B 0.000622914
2 *1957:X 0.000622914
3 *1958:B *1955:B 0
4 *1958:B *1957:A0 7.74068e-05
5 *1958:B *1957:S 0.000268767
6 *1958:B *1965:A1 0.00010096
7 *1958:B *1965:S 0.000186662
8 *1958:B *2039:A 9.25014e-06
9 *1958:B *419:46 0
10 *64:20 *1958:B 4.26229e-05
*RES
1 *1957:X *1958:B 40.6893 
*END

*D_NET *412 0.000302927
*CONN
*I *1960:B I *D sky130_fd_sc_hd__and2_2
*I *1959:X O *D sky130_fd_sc_hd__mux2_1
*CAP
1 *1960:B 0.000135909
2 *1959:X 0.000135909
3 *1984:D *1960:B 3.11088e-05
*RES
1 *1959:X *1960:B 21.1 
*END

*D_NET *413 0.000937018
*CONN
*I *1962:B I *D sky130_fd_sc_hd__and2_2
*I *1961:X O *D sky130_fd_sc_hd__mux2_1
*CAP
1 *1962:B 0.000221029
2 *1961:X 0.000221029
3 *1962:B *1962:A 0.000319323
4 *1962:B *1984:CLK 9.14882e-05
5 *1984:D *1962:B 4.57445e-05
6 *1986:D *1962:B 0
7 *409:38 *1962:B 3.84048e-05
*RES
1 *1961:X *1962:B 33.0286 
*END

*D_NET *414 0.00102104
*CONN
*I *1965:S I *D sky130_fd_sc_hd__mux2_1
*I *1964:X O *D sky130_fd_sc_hd__or4b_2
*CAP
1 *1965:S 0.000369637
2 *1964:X 0.000369637
3 *1965:S *521:8 6.61256e-05
4 *1958:B *1965:S 0.000186662
5 *409:8 *1965:S 2.89767e-05
*RES
1 *1964:X *1965:S 25.5911 
*END

*D_NET *415 0.00138543
*CONN
*I *1966:B I *D sky130_fd_sc_hd__and2_2
*I *1965:X O *D sky130_fd_sc_hd__mux2_1
*CAP
1 *1966:B 0.000464502
2 *1965:X 0.000464502
3 *1966:B *1954:A 0
4 *1966:B *2007:CLK 0.00036192
5 *1966:B *419:46 3.92854e-05
6 *1987:D *1966:B 5.52238e-05
*RES
1 *1965:X *1966:B 34.4214 
*END

*D_NET *416 0.00939488
*CONN
*I *2024:A I *D sky130_fd_sc_hd__clkdlybuf4s25_1
*I *2022:A I *D sky130_fd_sc_hd__clkdlybuf4s25_1
*I *2023:A I *D sky130_fd_sc_hd__clkdlybuf4s25_1
*I *2021:A I *D sky130_fd_sc_hd__clkdlybuf4s25_1
*I *1601:Y O *D sky130_fd_sc_hd__inv_2
*CAP
1 *2024:A 0.000483182
2 *2022:A 0.0012156
3 *2023:A 0.000230894
4 *2021:A 8.94793e-05
5 *1601:Y 0
6 *416:46 0.00259623
7 *416:25 0.00177039
8 *416:4 0.000731525
9 *2021:A *1601:A 6.20656e-05
10 *2021:A *491:16 1.74352e-05
11 *2022:A *1989:CLK 0.000370233
12 *2022:A *1992:CLK 1.92789e-05
13 *2022:A *492:8 1.20814e-05
14 *2024:A *2028:A 4.46186e-06
15 *2024:A *418:15 5.36451e-05
16 *2024:A *418:47 2.34423e-05
17 *2024:A *442:21 6.8023e-05
18 *416:25 *1953:A 0.000101545
19 *416:25 *1967:B 7.6644e-05
20 *416:25 *2003:CLK 0.000162449
21 *416:25 *2037:A 5.20669e-05
22 *416:25 *2045:A 1.39726e-05
23 *416:25 *491:16 9.99644e-06
24 *416:25 *491:35 1.31516e-05
25 *416:25 *527:8 0.000269801
26 *416:46 *1949:A 0.000207521
27 *416:46 *1953:A 0.0002219
28 *416:46 *1964:A 0
29 *416:46 *2041:A 0
30 *416:46 *418:15 0
31 *416:46 *421:35 0
32 *416:46 *438:10 0
33 *416:46 *443:12 8.00806e-05
34 *416:46 *491:35 0.000188809
35 *1989:D *2022:A 3.32132e-06
36 *1989:D *2024:A 8.25843e-06
37 *1989:D *416:46 0.000106403
38 *1992:D *2022:A 8.95387e-05
39 *2003:D *416:25 1.37341e-05
40 *2062:A *2022:A 2.77126e-05
*RES
1 *1601:Y *416:4 9.3 
2 *416:4 *2021:A 11.5143 
3 *416:4 *416:25 15.9643 
4 *416:25 *2023:A 17.55 
5 *416:25 *416:46 22.8393 
6 *416:46 *2022:A 26.7643 
7 *416:46 *2024:A 24.8893 
*END

*D_NET *417 0.000935583
*CONN
*I *1950:A1 I *D sky130_fd_sc_hd__a211o_2
*I *1602:Y O *D sky130_fd_sc_hd__inv_2
*CAP
1 *1950:A1 0.000384511
2 *1602:Y 0.000384511
3 *1950:A1 *1950:B1 9.54798e-06
4 *2007:D *1950:A1 0.000157013
5 *3:24 *1950:A1 0
*RES
1 *1602:Y *1950:A1 35.8133 
*END

*D_NET *418 0.00905195
*CONN
*I *2016:A I *D sky130_fd_sc_hd__clkbuf_16
*I *2014:A I *D sky130_fd_sc_hd__clkbuf_16
*I *2015:A I *D sky130_fd_sc_hd__clkbuf_16
*I *2017:A I *D sky130_fd_sc_hd__clkbuf_16
*I *2013:X O *D sky130_fd_sc_hd__clkbuf_16
*CAP
1 *2016:A 0
2 *2014:A 7.43781e-05
3 *2015:A 0.000129835
4 *2017:A 8.83628e-05
5 *2013:X 0
6 *418:81 0.00111136
7 *418:67 0.00149951
8 *418:62 0.00051483
9 *418:47 0.000567154
10 *418:31 0.000930028
11 *418:15 0.00168779
12 *418:6 0.000467379
13 *418:4 0.000110874
14 *2014:A *1950:B1 2.6425e-05
15 *2014:A *419:8 3.69047e-06
16 *2015:A *1675:B2 1.39841e-05
17 *2015:A *1968:A 5.7661e-06
18 *2015:A *1968:B 1.66955e-05
19 *2015:A *438:16 2.47724e-05
20 *2017:A *448:8 3.4879e-05
21 *418:6 *1942:A 0.000151071
22 *418:6 *1973:A 7.32955e-05
23 *418:6 *443:12 8.84091e-05
24 *418:15 *1942:A 6.6884e-05
25 *418:15 *2028:A 0
26 *418:15 *2041:A 0
27 *418:15 *443:12 6.55592e-05
28 *418:15 *443:22 0
29 *418:15 *523:10 0
30 *418:31 *1995:CLK 6.27272e-06
31 *418:31 *443:22 0
32 *418:47 *1675:A1 7.15962e-05
33 *418:47 *1675:B2 9.09001e-05
34 *418:47 *1968:B 1.22159e-05
35 *418:47 *442:21 0
36 *418:47 *442:32 0
37 *418:62 *1942:A 4.51148e-05
38 *418:62 *1973:A 0.000126629
39 *418:62 *493:57 7.36469e-05
40 *418:67 *1938:B 3.40795e-05
41 *418:67 *1951:A3 9.95963e-05
42 *418:67 *1952:D 0.000188534
43 *418:67 *2044:A 0.0001608
44 *418:67 *493:46 5.20476e-05
45 *418:67 *523:10 0
46 *418:67 *526:10 0.000173079
47 *418:81 *1950:B1 6.62761e-06
48 *418:81 *1952:D 1.01912e-05
49 *418:81 *1953:B 1.05524e-05
50 *418:81 *1967:B 1.72894e-05
51 *418:81 *491:35 8.22793e-06
52 *1676:B *418:47 3.17067e-05
53 *1989:D *418:15 0
54 *1989:D *418:47 0
55 *1995:D *418:31 2.8266e-06
56 *2007:D *418:81 0
57 *2024:A *418:15 5.36451e-05
58 *2024:A *418:47 2.34423e-05
59 *106:18 *418:31 0
60 *408:16 *418:67 0
61 *416:46 *418:15 0
*RES
1 *2013:X *418:4 9.3 
2 *418:4 *418:6 2.79464 
3 *418:6 *418:15 12.6071 
4 *418:15 *418:31 18.0819 
5 *418:31 *2017:A 10.8 
6 *418:15 *418:47 12.25 
7 *418:47 *2015:A 11.5946 
8 *418:4 *418:62 6.67857 
9 *418:62 *418:67 11.9643 
10 *418:67 *418:81 14.6074 
11 *418:81 *2014:A 10.4518 
12 *418:67 *2016:A 13.8 
*END

*D_NET *419 0.00819187
*CONN
*I *2002:CLK I *D sky130_fd_sc_hd__dfxtp_2
*I *1982:CLK I *D sky130_fd_sc_hd__dfxtp_2
*I *2003:CLK I *D sky130_fd_sc_hd__dfxtp_2
*I *2010:CLK I *D sky130_fd_sc_hd__dfxtp_2
*I *2004:CLK I *D sky130_fd_sc_hd__dfxtp_2
*I *1981:CLK I *D sky130_fd_sc_hd__dfxtp_2
*I *1987:CLK I *D sky130_fd_sc_hd__dfxtp_2
*I *2007:CLK I *D sky130_fd_sc_hd__dfxtp_2
*I *2001:CLK I *D sky130_fd_sc_hd__dfxtp_2
*I *2014:X O *D sky130_fd_sc_hd__clkbuf_16
*CAP
1 *2002:CLK 9.55717e-05
2 *1982:CLK 0
3 *2003:CLK 5.3896e-05
4 *2010:CLK 2.23854e-05
5 *2004:CLK 2.23854e-05
6 *1981:CLK 7.77185e-05
7 *1987:CLK 0.000199717
8 *2007:CLK 0.00016036
9 *2001:CLK 0
10 *2014:X 0.000217662
11 *419:91 0.000378187
12 *419:46 0.000476943
13 *419:33 0.000473853
14 *419:24 0.000251265
15 *419:18 0.000611729
16 *419:16 0.000780408
17 *419:10 0.000470219
18 *419:8 0.000610643
19 *1981:CLK *1965:A1 3.29297e-05
20 *1981:CLK *478:21 0.000115591
21 *2003:CLK *2045:A 9.90431e-05
22 *2007:CLK *1950:B1 3.72932e-05
23 *419:8 *1950:B1 0.000613605
24 *419:10 *1948:B 2.41972e-05
25 *419:10 *1953:B 4.01319e-05
26 *419:16 *1948:B 8.6332e-05
27 *419:24 *1950:B1 2.00751e-05
28 *419:24 *2001:D 0.000154339
29 *419:33 *1950:B1 4.84667e-05
30 *419:33 *1954:A 0
31 *419:46 *1954:A 0
32 *419:46 *1965:A1 0.000224946
33 *419:46 *2039:A 0
34 *419:91 *1953:B 9.54453e-05
35 *1958:B *419:46 0
36 *1964:B *2002:CLK 1.00332e-05
37 *1964:B *419:91 0.000150103
38 *1965:A0 *419:24 7.17932e-05
39 *1965:A0 *419:33 0.000131472
40 *1965:A0 *419:46 5.33978e-05
41 *1966:B *2007:CLK 0.00036192
42 *1966:B *419:46 3.92854e-05
43 *1981:D *1981:CLK 5.54817e-06
44 *1987:D *1987:CLK 0.000123664
45 *2002:D *2002:CLK 3.4846e-06
46 *2004:D *419:18 0.000278574
47 *2007:D *2007:CLK 0.000147136
48 *2007:D *419:33 0
49 *2010:D *419:16 1.64343e-05
50 *2014:A *419:8 3.69047e-06
51 *410:10 *2002:CLK 0.000137548
52 *416:25 *2003:CLK 0.000162449
*RES
1 *2014:X *419:8 19.675 
2 *419:8 *419:10 1.94643 
3 *419:10 *419:16 9.75 
4 *419:16 *419:18 7.10714 
5 *419:18 *419:24 7.39286 
6 *419:24 *2001:CLK 13.8 
7 *419:24 *419:33 3.16071 
8 *419:33 *2007:CLK 18.4607 
9 *419:33 *419:46 4.98214 
10 *419:46 *1987:CLK 17.2286 
11 *419:46 *1981:CLK 15.7464 
12 *419:18 *2004:CLK 9.72857 
13 *419:16 *2010:CLK 9.72857 
14 *419:10 *2003:CLK 15.5679 
15 *419:8 *419:91 5.58929 
16 *419:91 *1982:CLK 13.8 
17 *419:91 *2002:CLK 16.05 
*END

*D_NET *420 0.00627045
*CONN
*I *1991:CLK I *D sky130_fd_sc_hd__dfxtp_2
*I *2018:A I *D sky130_fd_sc_hd__clkbuf_4
*I *1986:CLK I *D sky130_fd_sc_hd__dfxtp_2
*I *1985:CLK I *D sky130_fd_sc_hd__dfxtp_2
*I *1984:CLK I *D sky130_fd_sc_hd__dfxtp_2
*I *1989:CLK I *D sky130_fd_sc_hd__dfxtp_2
*I *1992:CLK I *D sky130_fd_sc_hd__dfxtp_2
*I *1990:CLK I *D sky130_fd_sc_hd__dfxtp_2
*I *1983:CLK I *D sky130_fd_sc_hd__dfxtp_2
*I *2015:X O *D sky130_fd_sc_hd__clkbuf_16
*CAP
1 *1991:CLK 0
2 *2018:A 0
3 *1986:CLK 0
4 *1985:CLK 0.000146741
5 *1984:CLK 0.000242493
6 *1989:CLK 0.000377195
7 *1992:CLK 1.55834e-05
8 *1990:CLK 0.000186642
9 *1983:CLK 0.000175195
10 *2015:X 9.23533e-05
11 *420:64 0.000389234
12 *420:62 0.000524631
13 *420:54 0.000676036
14 *420:50 0.000151406
15 *420:34 0.000392778
16 *420:12 0.000481071
17 *420:10 0.000264973
18 *420:8 0.000238091
19 *1983:CLK *1963:B 0
20 *1983:CLK *478:45 0
21 *1983:CLK *492:10 0
22 *1984:CLK *1963:A_N 0.000227539
23 *1990:CLK *1969:B 0.000228937
24 *1990:CLK *439:19 6.8529e-05
25 *420:8 *439:19 0
26 *420:10 *439:19 0
27 *420:12 *1963:C 0
28 *420:12 *439:19 0
29 *420:12 *492:10 0
30 *420:12 *492:34 0
31 *420:62 *441:10 7.32272e-05
32 diag_busy *1984:CLK 0
33 diag_busy *1985:CLK 0
34 *1962:B *1984:CLK 9.14882e-05
35 *1984:D *1984:CLK 0.000183726
36 *1985:D *1984:CLK 8.15939e-05
37 *1985:D *1985:CLK 8.06427e-05
38 *1986:D *1984:CLK 8.45386e-05
39 *1986:D *420:62 1.64343e-05
40 *1990:D *1990:CLK 0.000108166
41 *1991:D *420:8 0.000154762
42 *1992:D *1989:CLK 7.171e-05
43 *1992:D *1992:CLK 5.52238e-05
44 *1992:D *420:8 0
45 *1992:D *420:10 0
46 *1992:D *420:12 0
47 *2022:A *1989:CLK 0.000370233
48 *2022:A *1992:CLK 1.92789e-05
*RES
1 *2015:X *420:8 16.05 
2 *420:8 *420:10 2.55357 
3 *420:10 *420:12 1.94643 
4 *420:12 *1983:CLK 16.6571 
5 *420:12 *1990:CLK 18.05 
6 *420:10 *420:34 4.5 
7 *420:34 *1992:CLK 9.83571 
8 *420:34 *1989:CLK 17.6393 
9 *420:8 *420:50 4.5 
10 *420:50 *420:54 2.60714 
11 *420:54 *420:62 8.5 
12 *420:62 *420:64 4.5 
13 *420:64 *1984:CLK 20.9607 
14 *420:64 *1985:CLK 16.5857 
15 *420:62 *1986:CLK 9.3 
16 *420:54 *2018:A 9.3 
17 *420:50 *1991:CLK 9.3 
*END

*D_NET *421 0.00851408
*CONN
*I *2012:CLK I *D sky130_fd_sc_hd__dfxtp_2
*I *2019:A I *D sky130_fd_sc_hd__clkbuf_4
*I *2011:CLK I *D sky130_fd_sc_hd__dfxtp_2
*I *1988:CLK I *D sky130_fd_sc_hd__dfxtp_2
*I *2006:CLK I *D sky130_fd_sc_hd__dfxtp_2
*I *2005:CLK I *D sky130_fd_sc_hd__dfxtp_2
*I *1980:CLK I *D sky130_fd_sc_hd__dfxtp_2
*I *2008:CLK I *D sky130_fd_sc_hd__dfxtp_2
*I *2009:CLK I *D sky130_fd_sc_hd__dfxtp_2
*I *2016:X O *D sky130_fd_sc_hd__clkbuf_16
*CAP
1 *2012:CLK 0.000118986
2 *2019:A 8.45796e-05
3 *2011:CLK 0.000165999
4 *1988:CLK 0.000154041
5 *2006:CLK 0
6 *2005:CLK 0.000409479
7 *1980:CLK 3.64069e-05
8 *2008:CLK 6.39529e-05
9 *2009:CLK 0.000135325
10 *2016:X 0.000804457
11 *421:127 0.00038431
12 *421:92 0.000442106
13 *421:54 0.00107566
14 *421:35 0.00113063
15 *421:16 0.000684717
16 *421:12 0.00061414
17 *2005:CLK *1980:D 0.000119116
18 *2005:CLK *2044:A 4.97967e-05
19 *2005:CLK *526:10 0.000183711
20 *2008:CLK *1964:A 4.51736e-05
21 *2009:CLK *1953:A 0
22 *2009:CLK *2034:A 0
23 *2009:CLK *2040:A 0
24 *2012:CLK *1856:A1 0
25 *421:12 *1939:B 0
26 *421:12 *2034:A 0.000373327
27 *421:12 *2036:A 5.76121e-05
28 *421:16 *2034:A 0.000245896
29 *421:35 *1953:A 0
30 *421:35 *1964:A 6.60175e-05
31 *421:35 *2034:A 0
32 *421:35 *493:10 1.45721e-05
33 *421:35 *493:23 0
34 *421:35 *493:88 0
35 *421:54 *1949:B 9.68428e-05
36 *421:54 *1964:A 5.49657e-05
37 *421:54 *1980:D 4.73603e-05
38 *421:54 *2041:A 0.000104896
39 *421:92 *2036:A 0
40 *421:127 *1856:A1 0
41 *1988:D *1988:CLK 5.52238e-05
42 *2006:D *2009:CLK 0
43 *2006:D *421:12 0.000115746
44 *2006:D *421:16 5.52302e-05
45 *2008:D *2008:CLK 5.33005e-05
46 *2009:D *2009:CLK 4.1331e-06
47 *2011:D *1988:CLK 0.000145311
48 *2011:D *2011:CLK 0.000190955
49 *2012:D *2012:CLK 0.000126416
50 *2012:D *2019:A 3.69047e-06
51 *2042:A *2012:CLK 0
52 *416:46 *421:35 0
*RES
1 *2016:X *421:12 29.8179 
2 *421:12 *421:16 7.5 
3 *421:16 *2009:CLK 16.05 
4 *421:16 *421:35 8.58036 
5 *421:35 *2008:CLK 15.4518 
6 *421:35 *421:54 14.4911 
7 *421:54 *1980:CLK 10.0321 
8 *421:54 *2005:CLK 24.6036 
9 *421:12 *2006:CLK 9.3 
10 *2016:X *421:92 16.5857 
11 *421:92 *1988:CLK 17.2464 
12 *421:92 *2011:CLK 17.2107 
13 *2016:X *421:127 16.6929 
14 *421:127 *2019:A 15.1571 
15 *421:127 *2012:CLK 16.3536 
*END

*D_NET *422 0.00730444
*CONN
*I *1998:CLK I *D sky130_fd_sc_hd__dfxtp_2
*I *1999:CLK I *D sky130_fd_sc_hd__dfxtp_2
*I *2000:CLK I *D sky130_fd_sc_hd__dfxtp_2
*I *2020:A I *D sky130_fd_sc_hd__clkbuf_4
*I *1995:CLK I *D sky130_fd_sc_hd__dfxtp_2
*I *1996:CLK I *D sky130_fd_sc_hd__dfxtp_2
*I *1993:CLK I *D sky130_fd_sc_hd__dfxtp_2
*I *1997:CLK I *D sky130_fd_sc_hd__dfxtp_2
*I *1994:CLK I *D sky130_fd_sc_hd__dfxtp_2
*I *2017:X O *D sky130_fd_sc_hd__clkbuf_16
*CAP
1 *1998:CLK 0
2 *1999:CLK 0.000231399
3 *2000:CLK 1.55834e-05
4 *2020:A 0
5 *1995:CLK 0.000149659
6 *1996:CLK 0.0001915
7 *1993:CLK 0.000235248
8 *1997:CLK 0.000228729
9 *1994:CLK 0.000373377
10 *2017:X 0.000108903
11 *422:94 0.000373777
12 *422:67 0.000622676
13 *422:65 0.000370885
14 *422:28 0.000768399
15 *422:26 0.000518727
16 *422:24 0.000541976
17 *422:14 0.000600556
18 *422:12 0.000247241
19 *1994:CLK *448:14 0
20 *1995:CLK *443:22 0
21 *1997:CLK *447:16 3.4689e-05
22 *422:12 *494:45 0.00010326
23 *422:14 *2047:A 8.57023e-05
24 *422:14 *494:45 0.000117621
25 *422:24 *1979:A 0.000129838
26 *422:24 *2047:A 5.71472e-05
27 *422:24 *448:14 0
28 *422:24 *494:45 4.59075e-05
29 *422:26 *448:14 0
30 *422:28 *448:14 0
31 *422:65 *449:8 0.000126629
32 *422:67 *449:8 0.000129595
33 *1629:B1 *1999:CLK 5.33005e-05
34 *1630:A *1999:CLK 8.86597e-05
35 *1993:D *1993:CLK 8.95186e-05
36 *1993:D *422:28 0
37 *1994:D *1994:CLK 1.64343e-05
38 *1996:D *1995:CLK 0
39 *1996:D *1996:CLK 1.64343e-05
40 *1999:D *1999:CLK 0
41 *1999:D *422:12 0.000151333
42 *1999:D *422:94 0
43 *2000:D *1999:CLK 4.46186e-06
44 *2000:D *422:14 5.33433e-05
45 *2000:D *422:24 7.48091e-05
46 *2000:D *422:94 7.6021e-05
47 *107:12 *1999:CLK 0
48 *108:8 *1999:CLK 0.000120587
49 *109:14 *1999:CLK 6.97409e-05
50 *141:14 *2000:CLK 5.52238e-05
51 *155:12 *2000:CLK 1.92789e-05
52 *418:31 *1995:CLK 6.27272e-06
*RES
1 *2017:X *422:12 20.7821 
2 *422:12 *422:14 3.41071 
3 *422:14 *422:24 11.8036 
4 *422:24 *422:26 1.94643 
5 *422:26 *422:28 2.85714 
6 *422:28 *1994:CLK 19.8893 
7 *422:28 *1997:CLK 17.6214 
8 *422:26 *1993:CLK 17.6393 
9 *422:24 *422:65 6.67857 
10 *422:65 *422:67 5.46429 
11 *422:67 *1996:CLK 12.3 
12 *422:67 *1995:CLK 20.8536 
13 *422:65 *2020:A 9.3 
14 *422:14 *422:94 7.05357 
15 *422:94 *2000:CLK 14.3357 
16 *422:94 *1999:CLK 18.9429 
17 *422:12 *1998:CLK 9.3 
*END

*D_NET *423 0.0020926
*CONN
*I *1943:B I *D sky130_fd_sc_hd__and2_2
*I *1950:A2 I *D sky130_fd_sc_hd__a211o_2
*I *2001:Q O *D sky130_fd_sc_hd__dfxtp_2
*CAP
1 *1943:B 0.000294096
2 *1950:A2 3.82418e-05
3 *2001:Q 0.00053622
4 *423:12 0.000868558
5 *1943:B *1602:A 1.52717e-05
6 *1943:B *1950:B1 2.89016e-05
7 *1943:B *1950:C1 5.59725e-06
8 *1943:B *472:10 3.09728e-05
9 *1950:A2 *1950:C1 0
10 *423:12 *472:10 5.70551e-05
11 *1965:A0 *1943:B 1.58213e-06
12 *2057:A *423:12 0
13 *3:24 *423:12 0.000216108
*RES
1 *2001:Q *423:12 27.5143 
2 *423:12 *1950:A2 10.0321 
3 *423:12 *1943:B 22.8357 
*END

*D_NET *424 0.00304901
*CONN
*I *2034:A I *D sky130_fd_sc_hd__dlygate4sd3_1
*I *2011:Q O *D sky130_fd_sc_hd__dfxtp_2
*CAP
1 *2034:A 0.00101589
2 *2011:Q 0.00101589
3 *2034:A *1953:A 0.000227021
4 *2006:D *2034:A 0.000170976
5 *2009:CLK *2034:A 0
6 *421:12 *2034:A 0.000373327
7 *421:16 *2034:A 0.000245896
8 *421:35 *2034:A 0
*RES
1 *2011:Q *2034:A 43.8679 
*END

*D_NET *425 0.00317813
*CONN
*I *2043:A I *D sky130_fd_sc_hd__dlygate4sd3_1
*I *1951:A4 I *D sky130_fd_sc_hd__o41a_2
*I *1964:C I *D sky130_fd_sc_hd__or4b_2
*I *2012:Q O *D sky130_fd_sc_hd__dfxtp_2
*CAP
1 *2043:A 0
2 *1951:A4 0
3 *1964:C 0.000234524
4 *2012:Q 0.000123993
5 *425:14 0.000372674
6 *425:12 0.000262143
7 *1964:C *1953:B 9.46929e-05
8 *1964:C *1964:A 0.000541963
9 *425:12 *1938:B 7.32955e-05
10 *425:12 *1952:D 0
11 *425:14 *1938:B 0.000117563
12 *425:14 *1949:B 0.000170964
13 *2042:A *1964:C 0.000185643
14 *2042:A *425:12 0.00014285
15 *2042:A *425:14 0.000609051
16 *408:16 *1964:C 0.000221055
17 *408:16 *425:14 1.21289e-05
18 *409:8 *1964:C 1.55885e-05
*RES
1 *2012:Q *425:12 21.3 
2 *425:12 *425:14 5.875 
3 *425:14 *1964:C 17.6571 
4 *425:14 *1951:A4 9.3 
5 *425:12 *2043:A 9.3 
*END

*D_NET *426 0.00314163
*CONN
*I *2041:A I *D sky130_fd_sc_hd__dlygate4sd3_1
*I *1964:A I *D sky130_fd_sc_hd__or4b_2
*I *2002:Q O *D sky130_fd_sc_hd__dfxtp_2
*CAP
1 *2041:A 0.000514353
2 *1964:A 0.000496061
3 *2002:Q 8.99336e-05
4 *426:8 0.00110035
5 *2041:A *443:12 0
6 *2041:A *523:10 0
7 *1964:B *1964:A 9.77423e-05
8 *1964:C *1964:A 0.000541963
9 *2008:CLK *1964:A 4.51736e-05
10 *409:8 *1964:A 3.01793e-05
11 *416:46 *1964:A 0
12 *416:46 *2041:A 0
13 *418:15 *2041:A 0
14 *421:35 *1964:A 6.60175e-05
15 *421:54 *1964:A 5.49657e-05
16 *421:54 *2041:A 0.000104896
*RES
1 *2002:Q *426:8 14.7464 
2 *426:8 *1964:A 24.5857 
3 *426:8 *2041:A 23.175 
*END

*D_NET *427 0.00117335
*CONN
*I *2040:A I *D sky130_fd_sc_hd__dlygate4sd3_1
*I *2003:Q O *D sky130_fd_sc_hd__dfxtp_2
*CAP
1 *2040:A 0.000196181
2 *2003:Q 0.000196181
3 *2040:A *1945:B 0.000232399
4 *2040:A *493:94 0.000230482
5 *2006:D *2040:A 0.000136485
6 *2009:CLK *2040:A 0
7 *2009:D *2040:A 0.000181623
*RES
1 *2003:Q *2040:A 33.85 
*END

*D_NET *428 0.000337884
*CONN
*I *2037:A I *D sky130_fd_sc_hd__dlygate4sd3_1
*I *2004:Q O *D sky130_fd_sc_hd__dfxtp_2
*CAP
1 *2037:A 0.000142908
2 *2004:Q 0.000142908
3 *416:25 *2037:A 5.20669e-05
*RES
1 *2004:Q *2037:A 30.1893 
*END

*D_NET *429 0.00223466
*CONN
*I *1951:A1 I *D sky130_fd_sc_hd__o41a_2
*I *1952:B I *D sky130_fd_sc_hd__or4_2
*I *2046:A I *D sky130_fd_sc_hd__dlygate4sd3_1
*I *2005:Q O *D sky130_fd_sc_hd__dfxtp_2
*CAP
1 *1951:A1 0
2 *1952:B 0.00039538
3 *2046:A 0
4 *2005:Q 0.000253586
5 *429:14 0.000528518
6 *429:10 0.000386724
7 *1952:B *1952:D 0
8 *1952:B *1967:A 0.000141105
9 *1952:B *493:88 2.89016e-05
10 *1952:B *493:116 1.02504e-05
11 *429:10 *1938:B 0
12 *429:10 *1951:A2 0.000164883
13 *429:14 *1938:B 0
14 *429:14 *1949:B 7.80714e-06
15 *429:14 *1951:A2 5.80706e-06
16 *429:14 *493:10 0
17 *408:16 *1952:B 0.000264465
18 *408:16 *429:14 4.7236e-05
*RES
1 *2005:Q *429:10 18.7107 
2 *429:10 *429:14 7.05357 
3 *429:14 *2046:A 9.3 
4 *429:14 *1952:B 26.9786 
5 *429:10 *1951:A1 13.8 
*END

*D_NET *430 0.000734448
*CONN
*I *2036:A I *D sky130_fd_sc_hd__dlygate4sd3_1
*I *2006:Q O *D sky130_fd_sc_hd__dfxtp_2
*CAP
1 *2036:A 0.000338418
2 *2006:Q 0.000338418
3 *2036:A *1939:B 0
4 *2036:A *1952:A 0
5 *2036:A *1952:D 0
6 *421:12 *2036:A 5.76121e-05
7 *421:92 *2036:A 0
*RES
1 *2006:Q *2036:A 33.0286 
*END

*D_NET *431 0.000582166
*CONN
*I *2039:A I *D sky130_fd_sc_hd__dlygate4sd3_1
*I *2007:Q O *D sky130_fd_sc_hd__dfxtp_2
*CAP
1 *2039:A 0.000249799
2 *2007:Q 0.000249799
3 *2039:A *1947:B 2.56694e-05
4 *2039:A *1950:B1 2.75742e-05
5 *2039:A *1955:B 2.00751e-05
6 *1958:B *2039:A 9.25014e-06
7 *1965:A0 *2039:A 0
8 *419:46 *2039:A 0
*RES
1 *2007:Q *2039:A 31.4214 
*END

*D_NET *432 0.00230651
*CONN
*I *2044:A I *D sky130_fd_sc_hd__dlygate4sd3_1
*I *1951:A3 I *D sky130_fd_sc_hd__o41a_2
*I *2008:Q O *D sky130_fd_sc_hd__dfxtp_2
*CAP
1 *2044:A 0.000131022
2 *1951:A3 0.000320644
3 *2008:Q 4.98849e-05
4 *432:8 0.000501551
5 *1951:A3 *1938:B 0.00014925
6 *1951:A3 *493:46 5.5764e-05
7 *2044:A *1980:D 9.67754e-05
8 *2044:A *493:46 0.000306351
9 *432:8 *1946:A 2.59355e-05
10 *432:8 *493:23 6.05161e-06
11 *2005:CLK *2044:A 4.97967e-05
12 *2042:A *1951:A3 0.000353086
13 *418:67 *1951:A3 9.95963e-05
14 *418:67 *2044:A 0.0001608
*RES
1 *2008:Q *432:8 14.3357 
2 *432:8 *1951:A3 19.7643 
3 *432:8 *2044:A 18.8179 
*END

*D_NET *433 0.000625492
*CONN
*I *2038:A I *D sky130_fd_sc_hd__dlygate4sd3_1
*I *2009:Q O *D sky130_fd_sc_hd__dfxtp_2
*CAP
1 *2038:A 0.000219596
2 *2009:Q 0.000219596
3 *2038:A *1967:A 0.0001863
*RES
1 *2009:Q *2038:A 22.4393 
*END

*D_NET *434 0.000881181
*CONN
*I *2045:A I *D sky130_fd_sc_hd__dlygate4sd3_1
*I *2010:Q O *D sky130_fd_sc_hd__dfxtp_2
*CAP
1 *2045:A 0.00021531
2 *2010:Q 0.00021531
3 *2045:A *1948:B 7.79781e-06
4 *2045:A *1967:B 5.52302e-05
5 *2045:A *491:35 0.00012401
6 *2003:CLK *2045:A 9.90431e-05
7 *2003:D *2045:A 0.000150508
8 *416:25 *2045:A 1.39726e-05
*RES
1 *2010:Q *2045:A 31.9571 
*END

*D_NET *435 0.000843328
*CONN
*I *2026:A I *D sky130_fd_sc_hd__dlygate4sd3_1
*I *1982:Q O *D sky130_fd_sc_hd__dfxtp_2
*CAP
1 *2026:A 0.000195875
2 *1982:Q 0.000195875
3 *2026:A *1955:B 0.000325163
4 *2026:A *1957:S 0.000126416
*RES
1 *1982:Q *2026:A 32.6536 
*END

*D_NET *436 0.000274093
*CONN
*I *2025:A I *D sky130_fd_sc_hd__dlygate4sd3_1
*I *1981:Q O *D sky130_fd_sc_hd__dfxtp_2
*CAP
1 *2025:A 3.97366e-05
2 *1981:Q 3.97366e-05
3 *2025:A *491:106 0.000127939
4 *3:24 *2025:A 6.66813e-05
*RES
1 *1981:Q *2025:A 29.2429 
*END

*D_NET *437 0.000973917
*CONN
*I *2027:A I *D sky130_fd_sc_hd__dlygate4sd3_1
*I *1980:Q O *D sky130_fd_sc_hd__dfxtp_2
*CAP
1 *2027:A 0.000344646
2 *1980:Q 0.000344646
3 *2027:A *1949:B 0.000208837
4 *2002:D *2027:A 5.49995e-05
5 *3:46 *2027:A 2.07878e-05
*RES
1 *1980:Q *2027:A 24.9036 
*END

*D_NET *438 0.008908
*CONN
*I *1627:D I *D sky130_fd_sc_hd__and4_2
*I *1623:B2 I *D sky130_fd_sc_hd__a22o_2
*I *1616:A I *D sky130_fd_sc_hd__nand2_2
*I *1690:A I *D sky130_fd_sc_hd__nand4_2
*I *1691:A1 I *D sky130_fd_sc_hd__a22o_4
*I *1617:A I *D sky130_fd_sc_hd__and3_2
*I *1612:D I *D sky130_fd_sc_hd__nand4_2
*I *1675:B2 I *D sky130_fd_sc_hd__a22oi_2
*I *1968:A I *D sky130_fd_sc_hd__and2_2
*I *1983:Q O *D sky130_fd_sc_hd__dfxtp_2
*CAP
1 *1627:D 0.000118174
2 *1623:B2 0
3 *1616:A 2.86315e-05
4 *1690:A 3.22883e-05
5 *1691:A1 0.000520727
6 *1617:A 0
7 *1612:D 2.35288e-05
8 *1675:B2 0.000131482
9 *1968:A 1.46412e-05
10 *1983:Q 0.00060138
11 *438:78 0.000720212
12 *438:69 0.000333149
13 *438:67 0.000389979
14 *438:52 0.000427786
15 *438:46 0.000551228
16 *438:42 0.000666585
17 *438:16 0.000277523
18 *438:10 0.000938823
19 *1612:D *454:43 0.000141734
20 *1612:D *513:23 0.000141734
21 *1627:D *1627:A 2.28598e-05
22 *1627:D *1675:B1 4.38128e-05
23 *1627:D *1968:B 9.60875e-05
24 *1627:D *445:23 5.41794e-05
25 *1627:D *454:56 0.000180777
26 *1675:B2 *1675:A1 0
27 *1675:B2 *1968:B 5.71472e-05
28 *1691:A1 *1691:A2 5.51994e-05
29 *438:10 *439:19 0
30 *438:10 *445:12 4.69774e-05
31 *438:10 *445:23 4.03318e-05
32 *438:42 *439:19 0
33 *438:42 *439:32 0
34 *438:42 *445:23 9.55094e-05
35 *438:46 *1623:A2 4.56405e-05
36 *438:46 *1968:B 9.76435e-06
37 *438:46 *454:56 0.00031407
38 *438:52 *1968:B 0.000186765
39 *438:67 *1616:B 2.26973e-05
40 *438:67 *513:10 0
41 *438:69 *1616:B 0.000297319
42 *1618:B *438:69 2.51903e-05
43 *1689:B1 *438:69 1.76135e-05
44 *1689:B1 *438:78 5.72222e-05
45 *1691:B1 *1691:A1 0.00010082
46 *1692:B *1690:A 4.66511e-05
47 *1692:B *438:78 0.000201127
48 *1989:D *438:10 0
49 *2008:D *438:10 4.27842e-06
50 *2015:A *1675:B2 1.39841e-05
51 *2015:A *1968:A 5.7661e-06
52 *2015:A *438:16 2.47724e-05
53 *3:46 *438:10 7.22481e-05
54 *93:19 *438:69 3.90513e-05
55 *94:14 *438:69 0.000125736
56 *168:21 *1690:A 1.02504e-05
57 *169:8 *1691:A1 0.000443648
58 *416:46 *438:10 0
59 *418:47 *1675:B2 9.09001e-05
*RES
1 *1983:Q *438:10 24.5857 
2 *438:10 *438:16 6.28571 
3 *438:16 *1968:A 9.72857 
4 *438:16 *1675:B2 12.6929 
5 *438:10 *438:42 8.57143 
6 *438:42 *438:46 4.96429 
7 *438:46 *438:52 8.51786 
8 *438:52 *1612:D 15.1571 
9 *438:52 *438:67 3.66964 
10 *438:67 *438:69 5.13393 
11 *438:69 *1617:A 13.8 
12 *438:69 *438:78 4.07143 
13 *438:78 *1691:A1 23.2821 
14 *438:78 *1690:A 14.5321 
15 *438:67 *1616:A 14.6125 
16 *438:46 *1623:B2 9.3 
17 *438:42 *1627:D 21.3357 
*END

*D_NET *439 0.00998611
*CONN
*I *1612:B I *D sky130_fd_sc_hd__nand4_2
*I *1613:B1 I *D sky130_fd_sc_hd__a22oi_2
*I *1772:A I *D sky130_fd_sc_hd__and3_2
*I *1771:A1 I *D sky130_fd_sc_hd__a21oi_2
*I *1687:A I *D sky130_fd_sc_hd__nand4_2
*I *1686:A1 I *D sky130_fd_sc_hd__a22o_4
*I *1614:C I *D sky130_fd_sc_hd__and4_2
*I *1623:A2 I *D sky130_fd_sc_hd__a22o_2
*I *1969:A I *D sky130_fd_sc_hd__and2_2
*I *1984:Q O *D sky130_fd_sc_hd__dfxtp_2
*CAP
1 *1612:B 0.000116676
2 *1613:B1 2.60755e-05
3 *1772:A 0.000261034
4 *1771:A1 6.71205e-05
5 *1687:A 0.000270435
6 *1686:A1 0.000245509
7 *1614:C 0
8 *1623:A2 2.62085e-05
9 *1969:A 0
10 *1984:Q 0.000127939
11 *439:81 0.000711555
12 *439:66 0.000757276
13 *439:49 0.00058509
14 *439:40 0.000344265
15 *439:34 0.000456399
16 *439:32 0.000628633
17 *439:19 0.000952496
18 *439:8 0.000864472
19 *1612:B *1612:A 1.83136e-05
20 *1612:B *1623:B1 1.98839e-05
21 *1612:B *454:43 1.21258e-05
22 *1612:B *513:23 1.3701e-05
23 *1613:B1 *440:38 1.3701e-05
24 *1613:B1 *513:23 1.3701e-05
25 *1623:A2 *1968:B 0.000144515
26 *1623:A2 *454:56 5.89536e-05
27 *1686:A1 *485:20 6.63007e-05
28 *439:8 *1969:B 0.00027257
29 *439:19 *1969:B 9.99853e-05
30 *439:19 *445:12 0
31 *439:32 *1623:B1 0.000148189
32 *439:34 *1613:B2 2.28499e-05
33 *439:34 *454:43 2.95641e-05
34 *439:34 *513:23 0.000574005
35 *439:40 *441:19 8.15939e-05
36 *439:40 *441:36 1.76135e-05
37 *439:40 *454:43 1.92905e-05
38 *439:40 *513:10 0
39 *439:49 *441:36 8.5662e-05
40 *439:49 *441:46 8.54625e-05
41 *439:49 *513:10 0
42 *439:66 *441:46 2.7814e-05
43 *439:81 *1690:D 0
44 *439:81 *441:46 0.000622531
45 *439:81 *495:26 0
46 *1615:A *439:40 5.80217e-05
47 *1615:A *439:49 4.1331e-06
48 *1686:B2 *1686:A1 7.61932e-05
49 *1688:C *439:49 9.10431e-06
50 *1689:A1 *439:49 9.25014e-06
51 *1689:A1 *439:66 0.000101545
52 *1689:A1 *439:81 1.59782e-05
53 *1689:A2 *1687:A 0.000102592
54 *1689:B1 *1687:A 5.33005e-05
55 *1689:B1 *439:66 9.71197e-05
56 *1770:A1 *439:81 7.6021e-05
57 *1771:B1 *1772:A 0.000175875
58 *1776:A *439:81 0
59 *1778:A *1772:A 0
60 *1990:CLK *439:19 6.8529e-05
61 *1991:D *439:19 0
62 *93:19 *439:49 0
63 *166:8 *439:49 0
64 *166:8 *439:81 0
65 *244:10 *1772:A 6.8646e-06
66 *244:10 *439:81 0.000196432
67 *420:8 *439:19 0
68 *420:10 *439:19 0
69 *420:12 *439:19 0
70 *438:10 *439:19 0
71 *438:42 *439:19 0
72 *438:42 *439:32 0
73 *438:46 *1623:A2 4.56405e-05
*RES
1 *1984:Q *439:8 12.3179 
2 *439:8 *1969:A 9.3 
3 *439:8 *439:19 16.8214 
4 *439:19 *1623:A2 15.1795 
5 *439:19 *439:32 7.35714 
6 *439:32 *439:34 6.69643 
7 *439:34 *439:40 7.28571 
8 *439:40 *1614:C 13.8 
9 *439:40 *439:49 5.28571 
10 *439:49 *1686:A1 18.05 
11 *439:49 *439:66 6.78571 
12 *439:66 *1687:A 13.0321 
13 *439:66 *439:81 19.4464 
14 *439:81 *1771:A1 10.2464 
15 *439:81 *1772:A 23.6393 
16 *439:34 *1613:B1 10.0321 
17 *439:32 *1612:B 11.3893 
*END

*D_NET *440 0.00785514
*CONN
*I *1769:A I *D sky130_fd_sc_hd__nand2_2
*I *1832:B2 I *D sky130_fd_sc_hd__a22oi_2
*I *1833:A I *D sky130_fd_sc_hd__and4_2
*I *1768:A I *D sky130_fd_sc_hd__and4_2
*I *1684:A I *D sky130_fd_sc_hd__nand4_4
*I *1685:A1 I *D sky130_fd_sc_hd__a22o_4
*I *1614:A I *D sky130_fd_sc_hd__and4_2
*I *1613:A1 I *D sky130_fd_sc_hd__a22oi_2
*I *1970:A I *D sky130_fd_sc_hd__and2_2
*I *1985:Q O *D sky130_fd_sc_hd__dfxtp_2
*CAP
1 *1769:A 0.00048717
2 *1832:B2 0
3 *1833:A 3.68998e-05
4 *1768:A 0.000211698
5 *1684:A 0
6 *1685:A1 0
7 *1614:A 4.65883e-05
8 *1613:A1 0
9 *1970:A 5.9795e-05
10 *1985:Q 4.54444e-05
11 *440:99 0.000578178
12 *440:86 0.000385804
13 *440:75 0.00107338
14 *440:66 0.000870132
15 *440:53 0.000320633
16 *440:38 0.000271468
17 *440:25 0.000338002
18 *440:8 0.000272653
19 *1614:A *1685:B1 9.90431e-05
20 *1768:A *1768:C 3.14163e-05
21 *1769:A *1769:B 1.97695e-05
22 *1769:A *1832:A1 1.58163e-05
23 *1769:A *1832:A2 5.7661e-06
24 *1769:A *495:18 2.29964e-05
25 *1970:A *492:41 0.000142856
26 *440:8 *492:34 0.000129868
27 *440:25 *441:19 8.66228e-05
28 *440:25 *454:43 5.52302e-05
29 *440:25 *492:34 2.31791e-05
30 *440:25 *513:10 0
31 *440:38 *441:19 5.35516e-05
32 *440:38 *454:10 0
33 *440:38 *454:43 7.17136e-05
34 *440:53 *1614:B 2.14658e-05
35 *440:53 *1685:A2 1.19402e-05
36 *440:53 *1685:B1 5.52238e-05
37 *440:53 *441:19 9.69119e-06
38 *440:53 *441:36 6.8646e-06
39 *440:53 *454:10 0
40 *440:66 *1614:B 0.000139907
41 *440:66 *1614:D 1.97695e-05
42 *440:66 *1684:B 0
43 *440:66 *1685:A2 2.89114e-05
44 *440:66 *1685:B1 4.17014e-05
45 *440:66 *454:19 0
46 *440:75 *1684:B 0
47 *440:75 *474:16 0
48 *440:75 *485:10 4.00025e-05
49 *440:75 *485:12 0.000404568
50 *440:75 *485:14 9.21958e-05
51 *440:75 *485:20 4.48583e-05
52 *440:86 *485:10 1.18064e-05
53 *440:99 *1885:A 4.04012e-05
54 *440:99 *441:61 1.59782e-05
55 *440:99 *441:72 1.52681e-05
56 *1613:B1 *440:38 1.3701e-05
57 *1687:D *440:75 7.58664e-05
58 *1835:A *1833:A 2.59355e-05
59 *1835:A *440:86 0.000165269
60 *1835:A *440:99 5.66157e-05
61 *1992:D *440:8 8.00806e-05
62 *2063:A *440:86 0
63 *2064:A *440:86 0
64 *2064:A *440:99 0
65 *163:8 *440:66 5.80217e-05
66 *163:8 *440:75 7.1724e-05
67 *245:8 *440:86 0.000324167
68 *246:8 *1769:A 9.7659e-05
69 *311:12 *440:99 0.000129868
*RES
1 *1985:Q *440:8 15.4429 
2 *440:8 *1970:A 15.1571 
3 *440:8 *440:25 8.125 
4 *440:25 *1613:A1 9.3 
5 *440:25 *440:38 8.23214 
6 *440:38 *1614:A 14.7464 
7 *440:38 *440:53 5.76786 
8 *440:53 *1685:A1 9.3 
9 *440:53 *440:66 10.2857 
10 *440:66 *1684:A 13.8 
11 *440:66 *440:75 15.3036 
12 *440:75 *1768:A 16.8 
13 *440:75 *440:86 6.5 
14 *440:86 *1833:A 14.3357 
15 *440:86 *440:99 7.35714 
16 *440:99 *1832:B2 9.3 
17 *440:99 *1769:A 16.0143 
*END

*D_NET *441 0.00922687
*CONN
*I *1684:D I *D sky130_fd_sc_hd__nand4_4
*I *1683:B I *D sky130_fd_sc_hd__nand2_2
*I *1832:A2 I *D sky130_fd_sc_hd__a22oi_2
*I *1885:A I *D sky130_fd_sc_hd__and3_2
*I *1833:C I *D sky130_fd_sc_hd__and4_2
*I *1768:D I *D sky130_fd_sc_hd__and4_2
*I *1685:B1 I *D sky130_fd_sc_hd__a22o_4
*I *1971:A I *D sky130_fd_sc_hd__and2_2
*I *1986:Q O *D sky130_fd_sc_hd__dfxtp_2
*CAP
1 *1684:D 0
2 *1683:B 0
3 *1832:A2 0.000242969
4 *1885:A 0.000197705
5 *1833:C 4.36033e-05
6 *1768:D 0
7 *1685:B1 0.000198921
8 *1971:A 0
9 *1986:Q 0.000188581
10 *441:72 0.000469722
11 *441:61 0.000336571
12 *441:52 0.000331193
13 *441:46 0.000645775
14 *441:36 0.000692671
15 *441:19 0.000519513
16 *441:10 0.000395002
17 *1685:B1 *1614:B 1.02936e-05
18 *1685:B1 *1614:D 5.33334e-05
19 *1685:B1 *1685:A2 5.71472e-05
20 *1832:A2 *485:80 2.04825e-05
21 *1832:A2 *495:18 0.000219711
22 *1885:A *485:80 2.23987e-05
23 *1885:A *495:10 0.000152333
24 *441:10 *2070:A 0.000347347
25 *441:10 *492:34 0.000347347
26 *441:19 *454:10 0
27 *441:19 *492:34 1.02504e-05
28 *441:19 *513:10 0
29 *441:36 *1685:A2 0
30 *441:46 *1683:A 5.52302e-05
31 *441:46 *474:16 0
32 *441:46 *495:26 6.76272e-05
33 *441:46 *497:14 5.1972e-05
34 *441:52 *474:10 5.97719e-05
35 *441:52 *474:16 4.46186e-06
36 *441:52 *485:12 0.000127439
37 *441:52 *497:14 2.89114e-05
38 *441:61 *474:8 0.000103041
39 *441:61 *474:10 3.07555e-05
40 *441:61 *485:10 0.000440363
41 *441:61 *485:12 2.31791e-05
42 *441:61 *485:69 0.000201127
43 *441:61 *485:80 5.41794e-05
44 *441:61 *495:20 0
45 *441:72 *485:80 6.54117e-05
46 *1614:A *1685:B1 9.90431e-05
47 *1767:A *441:46 5.41797e-06
48 *1769:A *1832:A2 5.7661e-06
49 *1770:A1 *441:46 5.33433e-05
50 *1770:A2 *441:61 6.2993e-05
51 *1834:A *1885:A 2.26327e-05
52 *1835:B *1833:C 5.33005e-05
53 *2066:A *1885:A 0
54 *2093:A *441:46 0.000173083
55 *162:8 *441:46 0.000108839
56 *162:17 *441:46 0.000108693
57 *167:10 *441:46 0.000175526
58 *246:8 *1832:A2 1.56e-05
59 *308:8 *1885:A 2.82057e-05
60 *311:12 *1885:A 0.000178881
61 *420:62 *441:10 7.32272e-05
62 *439:40 *441:19 8.15939e-05
63 *439:40 *441:36 1.76135e-05
64 *439:49 *441:36 8.5662e-05
65 *439:49 *441:46 8.54625e-05
66 *439:66 *441:46 2.7814e-05
67 *439:81 *441:46 0.000622531
68 *440:25 *441:19 8.66228e-05
69 *440:38 *441:19 5.35516e-05
70 *440:53 *1685:B1 5.52238e-05
71 *440:53 *441:19 9.69119e-06
72 *440:53 *441:36 6.8646e-06
73 *440:66 *1685:B1 4.17014e-05
74 *440:99 *1885:A 4.04012e-05
75 *440:99 *441:61 1.59782e-05
76 *440:99 *441:72 1.52681e-05
*RES
1 *1986:Q *441:10 19.5321 
2 *441:10 *1971:A 13.8 
3 *441:10 *441:19 4.67857 
4 *441:19 *1685:B1 18.4964 
5 *441:19 *441:36 2.55357 
6 *441:36 *441:46 20.7321 
7 *441:46 *441:52 6.67857 
8 *441:52 *1768:D 13.8 
9 *441:52 *441:61 8.92857 
10 *441:61 *1833:C 14.3357 
11 *441:61 *441:72 0.883929 
12 *441:72 *1885:A 19.2018 
13 *441:72 *1832:A2 17.3982 
14 *441:46 *1683:B 9.3 
15 *441:36 *1684:D 13.8 
*END

*D_NET *442 0.00902142
*CONN
*I *1696:A I *D sky130_fd_sc_hd__nand2_2
*I *1607:A I *D sky130_fd_sc_hd__and2_2
*I *1609:D I *D sky130_fd_sc_hd__and4_2
*I *1627:B I *D sky130_fd_sc_hd__and4_2
*I *1610:D I *D sky130_fd_sc_hd__nand4_2
*I *1622:B2 I *D sky130_fd_sc_hd__a22o_2
*I *1675:A2 I *D sky130_fd_sc_hd__a22oi_2
*I *2028:A I *D sky130_fd_sc_hd__dlygate4sd3_1
*I *1989:Q O *D sky130_fd_sc_hd__dfxtp_2
*CAP
1 *1696:A 0.000195988
2 *1607:A 2.9238e-05
3 *1609:D 0.000101275
4 *1627:B 0.000337736
5 *1610:D 5.68923e-05
6 *1622:B2 0.000267864
7 *1675:A2 8.61686e-05
8 *2028:A 0.000286724
9 *1989:Q 5.05962e-05
10 *442:88 0.000270512
11 *442:77 0.000651679
12 *442:49 0.00043746
13 *442:36 0.000473347
14 *442:32 0.000855784
15 *442:21 0.000439382
16 *442:8 0.000502519
17 *1609:D *1609:A 6.05161e-06
18 *1609:D *1609:C 5.52302e-05
19 *1609:D *443:81 5.33005e-05
20 *1609:D *443:87 5.33005e-05
21 *1610:D *1610:C 1.43e-05
22 *1610:D *1675:B1 1.89507e-06
23 *1610:D *443:41 1.36251e-05
24 *1622:B2 *1622:B1 0.00022459
25 *1627:B *1675:B1 0.000215605
26 *1627:B *443:41 9.71197e-05
27 *1627:B *454:56 5.52302e-05
28 *1627:B *497:81 1.02936e-05
29 *1696:A *1696:B 9.60875e-05
30 *1696:A *443:87 0.000177948
31 *1696:A *497:50 0.000169405
32 *2028:A *443:22 0.000135709
33 *2028:A *523:10 1.58163e-05
34 *442:21 *443:22 9.06558e-05
35 *442:21 *444:12 0.000126439
36 *442:32 *1610:C 5.38148e-05
37 *442:32 *1675:B1 0
38 *442:32 *443:22 0.000198007
39 *442:32 *444:12 9.25014e-06
40 *442:32 *506:36 9.87983e-06
41 *442:36 *1622:B1 5.33005e-05
42 *442:36 *443:58 2.28598e-05
43 *442:49 *1610:C 1.71615e-05
44 *442:49 *1622:B1 2.04825e-05
45 *442:49 *443:41 3.25078e-05
46 *442:77 *443:58 1.17968e-05
47 *442:77 *443:87 3.34295e-05
48 *442:77 *444:31 0
49 *442:77 *444:44 0
50 *442:77 *497:50 5.83304e-05
51 *442:77 *497:58 0.000170787
52 *442:77 *497:75 0
53 *442:77 *506:24 0.000164625
54 *442:77 *506:30 0.000144038
55 *442:77 *506:36 0.000434939
56 *442:88 *443:87 0.000148911
57 *442:88 *497:50 0.00014209
58 *1624:A *442:36 2.89016e-05
59 *1624:A *442:77 0.000171375
60 *1624:C *442:36 1.02936e-05
61 *1624:C *442:77 0.000198698
62 *1624:D *442:77 6.37408e-06
63 *1676:B *442:32 0
64 *1788:A1 *1696:A 0
65 *2024:A *2028:A 4.46186e-06
66 *2024:A *442:21 6.8023e-05
67 *101:8 *442:36 1.39726e-05
68 *102:10 *442:32 5.46303e-05
69 *102:10 *442:77 2.94103e-05
70 *172:10 *1607:A 5.33005e-05
71 *418:15 *2028:A 0
72 *418:47 *442:21 0
73 *418:47 *442:32 0
*RES
1 *1989:Q *442:8 14.3357 
2 *442:8 *2028:A 19.55 
3 *442:8 *442:21 4.07143 
4 *442:21 *1675:A2 15.1571 
5 *442:21 *442:32 4.375 
6 *442:32 *442:36 6.67857 
7 *442:36 *1622:B2 13.0321 
8 *442:36 *442:49 5.53571 
9 *442:49 *1610:D 14.5321 
10 *442:49 *1627:B 18.4429 
11 *442:32 *442:77 14.8036 
12 *442:77 *1609:D 15.5679 
13 *442:77 *442:88 1.94643 
14 *442:88 *1607:A 14.3357 
15 *442:88 *1696:A 18.675 
*END

*D_NET *443 0.0139581
*CONN
*I *1973:A I *D sky130_fd_sc_hd__and2_2
*I *1603:B1 I *D sky130_fd_sc_hd__a22o_2
*I *1609:B I *D sky130_fd_sc_hd__and4_2
*I *1701:A I *D sky130_fd_sc_hd__nand4_2
*I *1784:A I *D sky130_fd_sc_hd__nand2_2
*I *1700:A1 I *D sky130_fd_sc_hd__a22o_2
*I *1604:C I *D sky130_fd_sc_hd__and4_2
*I *1605:C I *D sky130_fd_sc_hd__nand4_2
*I *1622:A2 I *D sky130_fd_sc_hd__a22o_2
*I *1610:B I *D sky130_fd_sc_hd__nand4_2
*I *1990:Q O *D sky130_fd_sc_hd__dfxtp_2
*CAP
1 *1973:A 0.000428061
2 *1603:B1 0
3 *1609:B 0
4 *1701:A 0
5 *1784:A 0.000317392
6 *1700:A1 9.48184e-05
7 *1604:C 5.91757e-05
8 *1605:C 0.000135032
9 *1622:A2 1.58284e-05
10 *1610:B 0
11 *1990:Q 0.000486355
12 *443:126 0.000757358
13 *443:112 0.000543813
14 *443:87 0.000467641
15 *443:81 0.000318986
16 *443:62 0.000348309
17 *443:58 0.00049189
18 *443:41 0.000730627
19 *443:22 0.000800651
20 *443:12 0.00138807
21 *1604:C *1604:D 9.41642e-05
22 *1604:C *1607:B 2.42516e-05
23 *1604:C *497:50 5.52238e-05
24 *1605:C *1605:D 3.4855e-05
25 *1605:C *497:58 0.000136951
26 *1605:C *497:71 1.24368e-05
27 *1622:A2 *1622:B1 3.046e-05
28 *1784:A *445:51 0
29 *1784:A *512:68 0
30 *1973:A *1972:A 9.20361e-05
31 *1973:A *1973:B 0.000134617
32 *1973:A *493:57 6.93704e-06
33 *443:12 *1942:A 8.63062e-05
34 *443:22 *444:12 0.000126439
35 *443:22 *444:31 9.60447e-05
36 *443:22 *494:23 3.79467e-05
37 *443:22 *523:10 7.6644e-05
38 *443:41 *1622:A1 7.20429e-05
39 *443:41 *1622:B1 6.8646e-06
40 *443:41 *497:81 0.000159135
41 *443:58 *1622:B1 0.000128496
42 *443:58 *444:44 0.000178847
43 *443:58 *506:30 5.33005e-05
44 *443:58 *506:36 0.000659932
45 *443:62 *497:71 0.000146474
46 *443:62 *506:24 7.83659e-05
47 *443:62 *506:30 0.000121573
48 *443:81 *506:24 0.000167691
49 *443:87 *1604:D 6.73939e-05
50 *443:87 *1607:B 1.08359e-05
51 *443:87 *1696:B 0.000146474
52 *443:87 *497:50 2.23987e-05
53 *443:87 *506:22 0.000377181
54 *443:87 *506:24 5.59013e-05
55 *443:112 *1607:B 7.61882e-05
56 *443:112 *1696:B 5.20352e-05
57 *1608:B *443:62 0
58 *1608:B *443:81 0
59 *1609:D *443:81 5.33005e-05
60 *1609:D *443:87 5.33005e-05
61 *1610:D *443:41 1.36251e-05
62 *1625:B2 *443:58 0.000176234
63 *1627:B *443:41 9.71197e-05
64 *1696:A *443:87 0.000177948
65 *1700:B1 *1700:A1 5.52302e-05
66 *1700:B1 *1784:A 1.17968e-05
67 *1700:B1 *443:126 4.15914e-05
68 *1700:B2 *1700:A1 2.14658e-05
69 *1700:B2 *1784:A 3.69697e-05
70 *1700:B2 *443:126 3.69697e-05
71 *1701:C *443:126 0.000196066
72 *1702:B *443:112 5.41794e-05
73 *1702:C *443:126 6.71327e-05
74 *1788:A1 *443:112 0
75 *1993:D *1973:A 0.000105163
76 *1995:CLK *443:22 0
77 *1995:D *443:22 0
78 *1996:D *443:22 9.24299e-05
79 *2013:A *443:12 4.93118e-06
80 *2028:A *443:22 0.000135709
81 *2041:A *443:12 0
82 *83:12 *443:112 6.56795e-05
83 *83:12 *443:126 5.33005e-05
84 *86:10 *443:81 0
85 *89:20 *443:41 3.08047e-05
86 *101:8 *443:58 0.00014285
87 *102:10 *443:22 7.71617e-05
88 *180:8 *443:112 0
89 *257:10 *443:112 6.29917e-05
90 *257:10 *443:126 0.000111585
91 *416:46 *443:12 8.00806e-05
92 *418:6 *1973:A 7.32955e-05
93 *418:6 *443:12 8.84091e-05
94 *418:15 *443:12 6.55592e-05
95 *418:15 *443:22 0
96 *418:31 *443:22 0
97 *418:62 *1973:A 0.000126629
98 *442:21 *443:22 9.06558e-05
99 *442:32 *443:22 0.000198007
100 *442:36 *443:58 2.28598e-05
101 *442:49 *443:41 3.25078e-05
102 *442:77 *443:58 1.17968e-05
103 *442:77 *443:87 3.34295e-05
104 *442:88 *443:87 0.000148911
*RES
1 *1990:Q *443:12 25.2107 
2 *443:12 *443:22 21.3214 
3 *443:22 *1610:B 9.3 
4 *443:22 *443:41 15.6429 
5 *443:41 *1622:A2 9.60357 
6 *443:41 *443:58 20.5536 
7 *443:58 *443:62 7.05357 
8 *443:62 *1605:C 16.425 
9 *443:62 *443:81 7.28571 
10 *443:81 *443:87 11.8393 
11 *443:87 *1604:C 15.1571 
12 *443:87 *443:112 9.64286 
13 *443:112 *443:126 11.2857 
14 *443:126 *1700:A1 15.175 
15 *443:126 *1784:A 19.3893 
16 *443:112 *1701:A 9.3 
17 *443:81 *1609:B 9.3 
18 *443:58 *1603:B1 9.3 
19 *443:12 *1973:A 17.2643 
*END

*D_NET *444 0.0130989
*CONN
*I *1605:A I *D sky130_fd_sc_hd__nand4_2
*I *1604:A I *D sky130_fd_sc_hd__and4_2
*I *1698:A I *D sky130_fd_sc_hd__nand4_2
*I *1823:B2 I *D sky130_fd_sc_hd__a22o_2
*I *1782:A I *D sky130_fd_sc_hd__nand2_2
*I *1781:A I *D sky130_fd_sc_hd__and4_2
*I *1699:A1 I *D sky130_fd_sc_hd__a22o_2
*I *1603:A1 I *D sky130_fd_sc_hd__a22o_2
*I *2033:A I *D sky130_fd_sc_hd__dlygate4sd3_1
*I *1991:Q O *D sky130_fd_sc_hd__dfxtp_2
*CAP
1 *1605:A 0.000145906
2 *1604:A 0
3 *1698:A 7.48687e-05
4 *1823:B2 0.000166698
5 *1782:A 0
6 *1781:A 0
7 *1699:A1 0.000132565
8 *1603:A1 0
9 *2033:A 0
10 *1991:Q 0.000742359
11 *444:100 0.000180235
12 *444:76 0.000489081
13 *444:67 0.000878464
14 *444:52 0.00101979
15 *444:44 0.0012909
16 *444:38 0.00104319
17 *444:31 0.000607102
18 *444:12 0.00130657
19 *1605:A *1603:A2 1.50923e-05
20 *1605:A *497:71 6.19181e-05
21 *1698:A *1604:B 0.000186662
22 *1698:A *497:25 0
23 *1699:A1 *1699:A2 7.54606e-05
24 *1699:A1 *1699:B1 3.70397e-05
25 *1823:B2 *1823:A1 0.000227021
26 *444:12 *1975:A 5.76121e-05
27 *444:12 *1975:B 0.000314139
28 *444:12 *445:12 0.000100126
29 *444:12 *445:23 2.89016e-05
30 *444:31 *497:75 0.000725052
31 *444:44 *445:23 0
32 *444:44 *497:50 0
33 *444:44 *497:58 0
34 *444:52 *506:20 0.000518075
35 *444:67 *506:12 0.000939315
36 *444:67 *506:20 3.34366e-05
37 *444:76 *1823:A1 5.7616e-05
38 *444:76 *506:10 0.000359561
39 *444:76 *506:12 0.000109826
40 *444:100 *445:23 0
41 *1606:B *1605:A 3.0285e-05
42 *1608:B *1605:A 5.80706e-06
43 *1624:D *444:31 0.000227021
44 *1706:A2 *1605:A 4.98055e-06
45 *1783:A2 *444:76 3.98524e-05
46 *1915:B *1823:B2 5.68722e-05
47 *82:8 *444:31 0
48 *102:10 *444:31 0.000241935
49 *177:10 *1698:A 3.05446e-05
50 *243:14 *444:52 0
51 *243:14 *444:67 0
52 *442:21 *444:12 0.000126439
53 *442:32 *444:12 9.25014e-06
54 *442:77 *444:31 0
55 *442:77 *444:44 0
56 *443:22 *444:12 0.000126439
57 *443:22 *444:31 9.60447e-05
58 *443:58 *444:44 0.000178847
*RES
1 *1991:Q *444:12 29.1036 
2 *444:12 *2033:A 9.3 
3 *444:12 *444:31 23.3036 
4 *444:31 *1603:A1 9.3 
5 *444:31 *444:38 0.732143 
6 *444:38 *444:44 17.8571 
7 *444:44 *444:52 16.5179 
8 *444:52 *1699:A1 15.6929 
9 *444:52 *444:67 13.2143 
10 *444:67 *1781:A 13.8 
11 *444:67 *444:76 7.71429 
12 *444:76 *1782:A 13.8 
13 *444:76 *1823:B2 17.7286 
14 *444:44 *444:100 6.14286 
15 *444:100 *1698:A 11.4964 
16 *444:100 *1604:A 9.3 
17 *444:38 *1605:A 20.8893 
*END

*D_NET *445 0.0112494
*CONN
*I *1879:A I *D sky130_fd_sc_hd__and3_2
*I *1823:A2 I *D sky130_fd_sc_hd__a22o_2
*I *1824:A I *D sky130_fd_sc_hd__nand2_2
*I *1697:B I *D sky130_fd_sc_hd__nand2_2
*I *1781:D I *D sky130_fd_sc_hd__and4_2
*I *1698:D I *D sky130_fd_sc_hd__nand4_2
*I *1699:B1 I *D sky130_fd_sc_hd__a22o_2
*I *2030:A I *D sky130_fd_sc_hd__dlygate4sd3_1
*I *1992:Q O *D sky130_fd_sc_hd__dfxtp_2
*CAP
1 *1879:A 0
2 *1823:A2 0
3 *1824:A 0.000103077
4 *1697:B 0
5 *1781:D 0
6 *1698:D 1.4109e-05
7 *1699:B1 6.45455e-05
8 *2030:A 0
9 *1992:Q 0.000200422
10 *445:87 0.000302372
11 *445:73 0.000723841
12 *445:58 0.000565611
13 *445:51 0.00053393
14 *445:27 0.000143634
15 *445:23 0.00177058
16 *445:12 0.00141316
17 *1698:D *1699:A2 1.59793e-05
18 *1698:D *497:25 0
19 *1699:B1 *1699:A2 0.00014171
20 *1699:B1 *497:25 0.000293591
21 *1824:A *1823:A1 1.02504e-05
22 *1824:A *1823:B1 3.7457e-05
23 *445:23 *1622:A1 0
24 *445:23 *1675:A1 0
25 *445:23 *1968:B 0.000195547
26 *445:23 *506:12 1.76039e-05
27 *445:23 *506:20 6.42338e-05
28 *445:27 *1699:A2 4.13496e-05
29 *445:27 *497:25 0.00018077
30 *445:51 *506:12 0.00046351
31 *445:58 *1697:A 0.000272371
32 *445:58 *512:68 0.000272371
33 *445:73 *1697:A 5.33005e-05
34 *445:73 *1781:C 0
35 *445:73 *1823:A1 0
36 *445:73 *512:33 0
37 *445:73 *512:68 4.27935e-05
38 *445:73 *514:14 0.00010273
39 *445:87 *1823:B1 5.86305e-05
40 *445:87 *1824:B 2.84494e-05
41 *445:87 *514:51 9.90431e-05
42 *1619:B *445:23 2.14474e-05
43 *1620:A *445:23 0.000201127
44 *1627:D *445:23 5.41794e-05
45 *1694:A *445:23 0.000128146
46 *1694:B *445:23 1.91512e-05
47 *1699:A1 *1699:B1 3.70397e-05
48 *1700:B1 *445:51 5.38886e-05
49 *1783:A1 *445:51 5.59013e-05
50 *1783:B1 *445:73 0
51 *1784:A *445:51 0
52 *1785:A *445:73 8.91726e-05
53 *1825:A2 *1824:A 0.000173097
54 *1825:A2 *445:73 0
55 *1825:B1 *445:73 0
56 *1826:A2 *445:51 0
57 *1826:A2 *445:73 0.00017309
58 *1915:B *1824:A 3.55336e-05
59 *1915:B *445:73 4.18895e-05
60 *1915:B *445:87 0.000343356
61 *1989:D *445:23 0
62 *91:12 *445:23 0.000201127
63 *98:8 *445:23 0.00051433
64 *98:19 *445:23 0.000225314
65 *171:10 *445:23 0
66 *176:8 *445:23 2.8266e-06
67 *176:8 *445:51 6.95112e-05
68 *259:34 *445:73 0.000197977
69 *260:10 *445:73 7.252e-05
70 *438:10 *445:12 4.69774e-05
71 *438:10 *445:23 4.03318e-05
72 *438:42 *445:23 9.55094e-05
73 *439:19 *445:12 0
74 *444:12 *445:12 0.000100126
75 *444:12 *445:23 2.89016e-05
76 *444:44 *445:23 0
77 *444:100 *445:23 0
*RES
1 *1992:Q *445:12 22.425 
2 *445:12 *2030:A 9.3 
3 *445:12 *445:23 31.875 
4 *445:23 *445:27 6.26786 
5 *445:27 *1699:B1 12.3179 
6 *445:27 *1698:D 9.72857 
7 *445:23 *445:51 17.4286 
8 *445:51 *1781:D 9.3 
9 *445:51 *445:58 2.58929 
10 *445:58 *1697:B 9.3 
11 *445:58 *445:73 20.2143 
12 *445:73 *445:87 13.5893 
13 *445:87 *1824:A 20.9071 
14 *445:87 *1823:A2 9.3 
15 *445:73 *1879:A 9.3 
*END

*D_NET *446 0.00934847
*CONN
*I *1649:A I *D sky130_fd_sc_hd__nand2_2
*I *1737:A I *D sky130_fd_sc_hd__and2_2
*I *1654:D I *D sky130_fd_sc_hd__nand4_2
*I *1678:B I *D sky130_fd_sc_hd__and3_2
*I *1666:B2 I *D sky130_fd_sc_hd__a22o_2
*I *1653:D I *D sky130_fd_sc_hd__and4_2
*I *1934:A2 I *D sky130_fd_sc_hd__a21oi_2
*I *2032:A I *D sky130_fd_sc_hd__dlygate4sd3_1
*I *1993:Q O *D sky130_fd_sc_hd__dfxtp_2
*CAP
1 *1649:A 9.40326e-05
2 *1737:A 0.000663449
3 *1654:D 0.000108145
4 *1678:B 0.000220747
5 *1666:B2 2.99525e-05
6 *1653:D 0.000405063
7 *1934:A2 0
8 *2032:A 4.81846e-05
9 *1993:Q 8.59454e-05
10 *446:87 0.00116255
11 *446:54 0.000556642
12 *446:38 0.00019319
13 *446:30 0.000430238
14 *446:23 0.000708012
15 *446:8 0.000802892
16 *1654:D *1654:A 5.52302e-05
17 *1654:D *2072:A 9.90367e-05
18 *1666:B2 *1666:A1 0.000173871
19 *1666:B2 *455:60 0.000216439
20 *1666:B2 *519:91 5.50052e-05
21 *1678:B *1678:A 0
22 *1737:A *1648:A2 8.1852e-05
23 *1737:A *1648:B1 7.48301e-06
24 *1737:A *1871:B 1.28412e-05
25 *1737:A *455:34 2.79421e-05
26 *1737:A *455:49 1.58163e-05
27 *1737:A *466:42 5.04152e-05
28 *2032:A *1978:A 0.000153054
29 *2032:A *448:14 5.80217e-05
30 *446:38 *1653:B 3.37161e-05
31 *446:38 *1934:A1 0.000490251
32 *446:38 *447:31 0.000313209
33 *446:38 *450:10 0.000202559
34 *446:38 *455:49 9.84729e-05
35 *446:38 *455:60 5.49995e-05
36 *446:38 *519:91 0.000172173
37 *446:87 *2072:A 0.000692379
38 *446:87 *455:60 5.33005e-05
39 *1651:B1_N *1649:A 0
40 *1678:C *1678:B 1.40415e-05
41 *1935:A *1678:B 8.5896e-05
42 *1935:B *446:54 0.00011263
43 *127:8 *1649:A 0.00032402
44 *156:8 *1678:B 0
45 *215:6 *1649:A 0.000134184
46 *215:6 *1737:A 5.05892e-05
47 *383:10 *446:38 0
*RES
1 *1993:Q *446:8 10.675 
2 *446:8 *2032:A 20.2464 
3 *446:8 *446:23 9.89286 
4 *446:23 *1934:A2 9.3 
5 *446:23 *446:30 0.535714 
6 *446:30 *446:38 16.6071 
7 *446:38 *1653:D 9.3 
8 *446:38 *1666:B2 11.4786 
9 *446:30 *446:54 4.25 
10 *446:54 *1678:B 21.9964 
11 *446:54 *1654:D 11.4786 
12 *1653:D *446:87 27.7643 
13 *446:87 *1737:A 18.4071 
14 *446:87 *1649:A 13.1393 
*END

*D_NET *447 0.0128346
*CONN
*I *1653:B I *D sky130_fd_sc_hd__and4_2
*I *1666:A2 I *D sky130_fd_sc_hd__a22o_2
*I *1654:B I *D sky130_fd_sc_hd__nand4_2
*I *1648:B1 I *D sky130_fd_sc_hd__a22o_2
*I *1733:C I *D sky130_fd_sc_hd__and4bb_2
*I *1732:A1_N I *D sky130_fd_sc_hd__o2bb2a_2
*I *1646:B I *D sky130_fd_sc_hd__and3_2
*I *1755:A1 I *D sky130_fd_sc_hd__a21oi_2
*I *1756:A I *D sky130_fd_sc_hd__and3_2
*I *1977:A I *D sky130_fd_sc_hd__and2_2
*I *1994:Q O *D sky130_fd_sc_hd__dfxtp_2
*CAP
1 *1653:B 0.000109658
2 *1666:A2 7.73024e-05
3 *1654:B 9.71459e-05
4 *1648:B1 3.74522e-05
5 *1733:C 0
6 *1732:A1_N 9.50566e-05
7 *1646:B 0
8 *1755:A1 2.23854e-05
9 *1756:A 0.000386145
10 *1977:A 0.000294643
11 *1994:Q 0.000553808
12 *447:113 0.000507607
13 *447:80 0.00030253
14 *447:69 0.000421632
15 *447:43 0.000835065
16 *447:37 0.000802092
17 *447:35 0.000539315
18 *447:33 0.000673623
19 *447:31 0.000467843
20 *447:16 0.00120664
21 *1648:B1 *1648:A2 1.24368e-05
22 *1648:B1 *455:34 5.33005e-05
23 *1648:B1 *455:49 4.27935e-05
24 *1653:B *455:49 5.50052e-05
25 *1654:B *1654:C 0.000173804
26 *1666:A2 *1666:A1 7.92198e-05
27 *1732:A1_N *1732:A2_N 0.000201989
28 *1756:A *1756:B 6.75007e-05
29 *1756:A *2071:A 4.0342e-06
30 *1977:A *449:19 0
31 *1977:A *450:10 0
32 *447:16 *448:14 7.89362e-05
33 *447:31 *450:10 0.000315806
34 *447:35 *1653:A 0.00073755
35 *447:35 *455:34 2.31791e-05
36 *447:37 *1653:A 0.000121573
37 *447:37 *455:10 0.00014576
38 *447:37 *455:34 0.000147474
39 *447:37 *519:38 8.99641e-05
40 *447:43 *1731:A1 0.000317082
41 *447:43 *519:38 0.000104246
42 *447:69 *455:10 0.000225616
43 *447:69 *465:61 9.80561e-05
44 *447:80 *1649:B 7.90803e-05
45 *447:80 *1732:A2_N 2.31791e-05
46 *447:80 *465:63 0.000146474
47 *447:113 *1653:A 3.14003e-05
48 *447:113 *1666:A1 0.000271352
49 *447:113 *1934:A1 5.52302e-05
50 *447:113 *2072:A 0
51 *447:113 *519:91 0.000227526
52 *1646:C *447:69 0.000274294
53 *1646:C *447:80 4.13496e-05
54 *1731:B1 *447:43 2.14757e-05
55 *1732:B1 *1732:A1_N 0.000125149
56 *1732:B1 *447:80 1.76039e-05
57 *1734:B *1732:A1_N 0
58 *1737:A *1648:B1 7.48301e-06
59 *1997:CLK *447:16 3.4689e-05
60 *1997:D *447:16 0.000104125
61 *2049:A *447:43 0.000150632
62 *124:10 *447:37 0
63 *124:10 *447:43 0
64 *132:6 *1666:A2 1.66623e-05
65 *145:12 *1654:B 0
66 *208:10 *447:80 0.000107353
67 *215:6 *1648:B1 0.000137983
68 *229:22 *447:35 0
69 *383:10 *447:35 6.05207e-05
70 *383:10 *447:113 2.88619e-05
71 *446:38 *1653:B 3.37161e-05
72 *446:38 *447:31 0.000313209
*RES
1 *1994:Q *447:16 25.7643 
2 *447:16 *1977:A 23.5857 
3 *447:16 *447:31 7.94643 
4 *447:31 *447:33 4.5 
5 *447:33 *447:35 9.53571 
6 *447:35 *447:37 4.07143 
7 *447:37 *447:43 12.9286 
8 *447:43 *1756:A 24.5857 
9 *447:43 *1755:A1 9.72857 
10 *447:37 *447:69 9.98214 
11 *447:69 *1646:B 9.3 
12 *447:69 *447:80 8.60714 
13 *447:80 *1732:A1_N 17.2018 
14 *447:80 *1733:C 13.8 
15 *447:35 *1648:B1 15.1571 
16 *447:33 *447:113 10.8929 
17 *447:113 *1654:B 20.55 
18 *447:113 *1666:A2 11.1259 
19 *447:31 *1653:B 10.6571 
*END

*D_NET *448 0.00737228
*CONN
*I *2047:A I *D sky130_fd_sc_hd__dlygate4sd3_1
*I *1856:B2 I *D sky130_fd_sc_hd__a22o_2
*I *1753:A I *D sky130_fd_sc_hd__nand2_2
*I *1648:A1 I *D sky130_fd_sc_hd__a22o_2
*I *1645:A I *D sky130_fd_sc_hd__and2_4
*I *1995:Q O *D sky130_fd_sc_hd__dfxtp_2
*CAP
1 *2047:A 0.000182796
2 *1856:B2 0
3 *1753:A 0
4 *1648:A1 0.000130057
5 *1645:A 1.99857e-05
6 *1995:Q 0.000255598
7 *448:34 0.000515845
8 *448:28 0.000742578
9 *448:14 0.00124963
10 *448:8 0.00131125
11 *1645:A *1729:A 1.04232e-05
12 *1648:A1 *1648:A2 0.000121573
13 *1648:A1 *1730:B 0.000127476
14 *1648:A1 *2072:A 0.000195562
15 *1648:A1 *519:38 3.67548e-05
16 *2047:A *1978:A 0
17 *2047:A *494:45 0.00014285
18 *448:14 *1976:B 0
19 *448:14 *1978:A 0
20 *448:28 *1856:A1 7.55006e-05
21 *448:28 *1856:A2 7.38985e-05
22 *448:28 *1856:B1 5.72256e-05
23 *448:34 *1729:A 0.000443654
24 *448:34 *1729:B 2.24195e-05
25 *448:34 *1730:B 0.000567277
26 *448:34 *465:24 0.000178847
27 *1754:A1 *448:34 0.000137983
28 *1757:B *448:34 2.28598e-05
29 *1858:A2 *448:28 0.000147083
30 *1858:B1 *448:28 1.91936e-05
31 *1994:CLK *448:14 0
32 *2012:D *448:14 4.27842e-06
33 *2017:A *448:8 3.4879e-05
34 *2032:A *448:14 5.80217e-05
35 *230:23 *448:34 1.02821e-05
36 *233:8 *448:34 5.59013e-05
37 *233:23 *448:28 8.96273e-05
38 *234:30 *1648:A1 9.47028e-05
39 *234:30 *448:34 1.4487e-05
40 *422:14 *2047:A 8.57023e-05
41 *422:24 *2047:A 5.71472e-05
42 *422:24 *448:14 0
43 *422:26 *448:14 0
44 *422:28 *448:14 0
45 *447:16 *448:14 7.89362e-05
*RES
1 *1995:Q *448:8 17.6214 
2 *448:8 *448:14 19.9464 
3 *448:14 *448:28 13.3929 
4 *448:28 *448:34 14.3929 
5 *448:34 *1645:A 9.72857 
6 *448:34 *1648:A1 22.6214 
7 *448:28 *1753:A 13.8 
8 *448:14 *1856:B2 9.3 
9 *448:8 *2047:A 18.0143 
*END

*D_NET *449 0.00952249
*CONN
*I *1857:A I *D sky130_fd_sc_hd__nand2_2
*I *1871:A I *D sky130_fd_sc_hd__and3_2
*I *1729:B I *D sky130_fd_sc_hd__nand2_2
*I *1730:B I *D sky130_fd_sc_hd__and3_2
*I *1752:B I *D sky130_fd_sc_hd__and3_2
*I *1731:A2 I *D sky130_fd_sc_hd__a21oi_2
*I *1856:A2 I *D sky130_fd_sc_hd__a22o_2
*I *2031:A I *D sky130_fd_sc_hd__dlygate4sd3_1
*I *1996:Q O *D sky130_fd_sc_hd__dfxtp_2
*CAP
1 *1857:A 7.4606e-05
2 *1871:A 0
3 *1729:B 5.61271e-05
4 *1730:B 0.000480331
5 *1752:B 5.38179e-05
6 *1731:A2 6.79177e-05
7 *1856:A2 4.44922e-05
8 *2031:A 0
9 *1996:Q 0.000360644
10 *449:56 0.000252975
11 *449:50 0.000650985
12 *449:48 0.000325101
13 *449:40 0.000389884
14 *449:23 0.000334625
15 *449:19 0.00089267
16 *449:8 0.0010489
17 *1729:B *1729:A 3.93247e-05
18 *1731:A2 *465:12 0.000200413
19 *1731:A2 *466:38 6.8646e-06
20 *1752:B *465:48 4.08637e-05
21 *1856:A2 *1856:B1 3.21283e-05
22 *1856:A2 *466:52 0.000126102
23 *449:8 *1979:A 9.90367e-05
24 *449:19 *1976:A 0.000509296
25 *449:19 *1977:B 0.000269428
26 *449:23 *1857:B 8.91963e-06
27 *449:23 *466:52 6.14702e-06
28 *449:40 *466:52 0.00026788
29 *449:48 *466:38 9.91086e-05
30 *449:48 *466:42 5.33334e-05
31 *449:48 *466:52 7.49387e-06
32 *449:50 *466:38 0.000101545
33 *449:56 *465:24 0.000139907
34 *449:56 *465:48 5.33005e-05
35 *449:56 *466:38 0.000101545
36 *1648:A1 *1730:B 0.000127476
37 *1731:B1 *1731:A2 0.00015234
38 *1754:A1 *1729:B 6.05161e-06
39 *1757:A *449:50 6.98302e-05
40 *1757:A *449:56 0.000104974
41 *1858:A1 *449:40 9.90431e-05
42 *1858:A1 *449:48 5.16637e-05
43 *1858:A2 *1857:A 5.33005e-05
44 *1858:A2 *449:23 0.000146853
45 *1858:A2 *449:40 4.40513e-06
46 *1858:B1 *1856:A2 2.42516e-05
47 *1908:A1 *449:40 0
48 *1908:B1 *1857:A 1.24368e-05
49 *1977:A *449:19 0
50 *1999:D *449:19 0
51 *124:10 *1731:A2 7.05375e-05
52 *230:23 *449:48 3.06406e-05
53 *230:23 *449:50 2.8266e-06
54 *233:23 *449:40 0.00027661
55 *234:30 *1729:B 0.00017372
56 *422:65 *449:8 0.000126629
57 *422:67 *449:8 0.000129595
58 *448:28 *1856:A2 7.38985e-05
59 *448:34 *1729:B 2.24195e-05
60 *448:34 *1730:B 0.000567277
*RES
1 *1996:Q *449:8 16.425 
2 *449:8 *2031:A 9.3 
3 *449:8 *449:19 18.9821 
4 *449:19 *449:23 7.05357 
5 *449:23 *1856:A2 10.8357 
6 *449:23 *449:40 14.0536 
7 *449:40 *449:48 8.44643 
8 *449:48 *449:50 1.33929 
9 *449:50 *449:56 7.60714 
10 *449:56 *1731:A2 21.1571 
11 *449:56 *1752:B 10.2643 
12 *449:50 *1730:B 20.4964 
13 *449:48 *1729:B 15.5857 
14 *449:40 *1871:A 9.3 
15 *449:19 *1857:A 15.175 
*END

*D_NET *450 0.00605793
*CONN
*I *1720:A I *D sky130_fd_sc_hd__and2_2
*I *1634:A I *D sky130_fd_sc_hd__nand2_2
*I *1663:B2 I *D sky130_fd_sc_hd__a22oi_2
*I *1639:D I *D sky130_fd_sc_hd__and4_2
*I *1638:B I *D sky130_fd_sc_hd__nand2_2
*I *1679:A2 I *D sky130_fd_sc_hd__a31oi_2
*I *1997:Q O *D sky130_fd_sc_hd__dfxtp_2
*CAP
1 *1720:A 0.000200881
2 *1634:A 4.1636e-05
3 *1663:B2 0
4 *1639:D 0
5 *1638:B 2.52056e-05
6 *1679:A2 0
7 *1997:Q 0.000496976
8 *450:64 0.000584841
9 *450:51 0.000476145
10 *450:38 0.000382184
11 *450:19 0.000456829
12 *450:10 0.000680237
13 *1634:A *469:8 2.44318e-05
14 *1638:B *1638:A 5.52302e-05
15 *1720:A *1720:B 1.19309e-05
16 *1720:A *1807:A1 0
17 *1720:A *467:86 0
18 *450:10 *1934:A1 1.31516e-05
19 *450:19 *1679:A1 0.000139783
20 *450:38 *1639:B 0.000102207
21 *450:38 *1639:C 1.98839e-05
22 *450:38 *1679:A1 9.69119e-06
23 *450:38 *451:10 0.000150625
24 *450:51 *1639:C 0.000119464
25 *450:51 *467:49 6.8646e-06
26 *450:51 *468:80 5.80706e-06
27 *450:64 *467:60 4.038e-06
28 *450:64 *467:86 0
29 *450:64 *468:80 7.252e-05
30 *1636:A1 *450:64 0.000148189
31 *1664:B *450:51 0.000150632
32 *1664:B *450:64 3.51442e-05
33 *1677:A *450:19 8.39e-05
34 *1679:A3 *450:19 0
35 *1719:A *1720:A 0
36 *1977:A *450:10 0
37 *2082:A *450:64 0
38 *112:10 *450:64 0.000194951
39 *113:14 *1634:A 5.52238e-05
40 *113:14 *450:64 9.6732e-05
41 *118:8 *450:51 5.71472e-05
42 *141:14 *450:38 0.000269422
43 *141:14 *450:51 3.98559e-05
44 *155:12 *450:19 0
45 *155:12 *450:38 0
46 *188:10 *1720:A 0.000225616
47 *189:16 *1720:A 0.000102188
48 *383:10 *450:10 0
49 *383:10 *450:19 0
50 *383:10 *450:38 0
51 *383:16 *1720:A 0
52 *383:16 *450:38 0
53 *446:38 *450:10 0.000202559
54 *447:31 *450:10 0.000315806
*RES
1 *1997:Q *450:10 22.3893 
2 *450:10 *1679:A2 13.8 
3 *450:10 *450:19 4.98214 
4 *450:19 *1638:B 14.3357 
5 *450:19 *450:38 10.6071 
6 *450:38 *1639:D 9.3 
7 *450:38 *450:51 8.23214 
8 *450:51 *1663:B2 13.8 
9 *450:51 *450:64 8.375 
10 *450:64 *1634:A 14.7464 
11 *450:64 *1720:A 18.5321 
*END

*D_NET *451 0.0063891
*CONN
*I *1801:A1 I *D sky130_fd_sc_hd__a21oi_2
*I *1717:A I *D sky130_fd_sc_hd__and3_2
*I *1802:A I *D sky130_fd_sc_hd__and3_2
*I *1716:A I *D sky130_fd_sc_hd__nand2_2
*I *1631:C I *D sky130_fd_sc_hd__and4_2
*I *1633:B1 I *D sky130_fd_sc_hd__a22o_2
*I *1663:A2 I *D sky130_fd_sc_hd__a22oi_2
*I *1639:B I *D sky130_fd_sc_hd__and4_2
*I *1998:Q O *D sky130_fd_sc_hd__dfxtp_2
*CAP
1 *1801:A1 0.000118723
2 *1717:A 6.69469e-05
3 *1802:A 7.51842e-05
4 *1716:A 3.06698e-05
5 *1631:C 0
6 *1633:B1 0
7 *1663:A2 1.99167e-05
8 *1639:B 0.000160088
9 *1998:Q 0.000281375
10 *451:73 0.000142131
11 *451:71 0.00020221
12 *451:60 0.00046782
13 *451:45 0.000435222
14 *451:32 0.000235472
15 *451:21 0.000273648
16 *451:10 0.000541281
17 *1716:A *1717:B 1.98839e-05
18 *1716:A *469:22 1.33343e-05
19 *1801:A1 *469:32 4.98055e-06
20 *451:10 *1638:A 2.89016e-05
21 *451:10 *453:10 5.66647e-05
22 *451:21 *453:10 6.07232e-05
23 *451:32 *452:10 8.91726e-05
24 *451:32 *453:10 0.000124713
25 *451:45 *452:10 1.99099e-05
26 *451:45 *452:23 4.66203e-05
27 *451:45 *452:36 0
28 *451:45 *453:10 6.39901e-05
29 *451:60 *1631:B 0.00014183
30 *451:60 *1713:A 3.87582e-05
31 *451:60 *1714:B2 0.000125724
32 *451:60 *452:23 1.76135e-05
33 *451:60 *452:32 0.000105054
34 *451:60 *469:16 0.000508764
35 *451:60 *469:32 2.8266e-06
36 *451:71 *469:32 8.77116e-05
37 *1715:B *451:60 0.000154762
38 *1802:C *1801:A1 0.000129868
39 *1803:A *1801:A1 1.24368e-05
40 *108:27 *1663:A2 5.33433e-05
41 *109:14 *1663:A2 9.90431e-05
42 *110:6 *451:60 6.05161e-06
43 *141:14 *1639:B 1.21258e-05
44 *155:12 *451:10 0
45 *191:10 *451:60 2.68539e-05
46 *191:23 *1717:A 0.000111501
47 *191:23 *1802:A 7.48091e-05
48 *191:23 *451:60 5.89074e-05
49 *275:10 *1801:A1 4.53889e-05
50 *279:10 *1717:A 0.000183726
51 *383:16 *1801:A1 0.00015134
52 *383:16 *451:10 0
53 *383:16 *451:32 0
54 *383:16 *451:60 0.000162186
55 *383:16 *451:71 0.000246064
56 *450:38 *1639:B 0.000102207
57 *450:38 *451:10 0.000150625
*RES
1 *1998:Q *451:10 18.1214 
2 *451:10 *1639:B 15.9786 
3 *451:10 *451:21 1.64286 
4 *451:21 *1663:A2 14.7464 
5 *451:21 *451:32 3.16071 
6 *451:32 *1633:B1 13.8 
7 *451:32 *451:45 6.67857 
8 *451:45 *1631:C 9.3 
9 *451:45 *451:60 16.6607 
10 *451:60 *1716:A 14.3357 
11 *451:60 *451:71 3.16071 
12 *451:71 *451:73 4.5 
13 *451:73 *1802:A 10.6571 
14 *451:73 *1717:A 11.4786 
15 *451:71 *1801:A1 17.1036 
*END

*D_NET *452 0.0069655
*CONN
*I *1713:A I *D sky130_fd_sc_hd__and4_2
*I *1799:A I *D sky130_fd_sc_hd__nand2_2
*I *1846:B2 I *D sky130_fd_sc_hd__a22o_2
*I *1798:A I *D sky130_fd_sc_hd__and4_2
*I *1714:A1 I *D sky130_fd_sc_hd__a22oi_2
*I *1631:D I *D sky130_fd_sc_hd__and4_2
*I *1633:A1 I *D sky130_fd_sc_hd__a22o_2
*I *1999:Q O *D sky130_fd_sc_hd__dfxtp_2
*CAP
1 *1713:A 0.000169351
2 *1799:A 3.4274e-05
3 *1846:B2 0.000206421
4 *1798:A 9.78338e-05
5 *1714:A1 6.60611e-05
6 *1631:D 0
7 *1633:A1 7.04632e-05
8 *1999:Q 0.000369956
9 *452:62 0.000328919
10 *452:51 0.00043838
11 *452:36 0.000457744
12 *452:32 0.000398865
13 *452:23 0.000168679
14 *452:10 0.000518944
15 *1633:A1 *468:14 5.39166e-06
16 *1713:A *1713:B 0.000263524
17 *1713:A *1713:C 5.52302e-05
18 *1714:A1 *1714:B1 1.09281e-05
19 *1714:A1 *453:38 9.30603e-06
20 *1799:A *453:73 0.000118903
21 *1846:B2 *1846:A1 3.99614e-06
22 *1846:B2 *1846:B1 0.000137983
23 *1846:B2 *470:24 0
24 *452:23 *453:10 0
25 *452:32 *453:10 0
26 *452:36 *453:10 2.11543e-05
27 *452:36 *453:21 0.000145753
28 *452:36 *453:38 3.9838e-05
29 *452:51 *453:38 0.00037189
30 *452:51 *469:32 7.57773e-05
31 *452:51 *469:42 0.000101545
32 *452:62 *453:62 1.91414e-05
33 *452:62 *453:73 5.41794e-05
34 *452:62 *469:42 0.000116481
35 *1800:A1 *1798:A 0.000180764
36 *1800:A1 *452:51 1.52978e-05
37 *1800:A1 *452:62 5.84267e-05
38 *1802:C *452:51 0
39 *1848:B1 *1799:A 0.000128154
40 *1848:B1 *452:62 0.000105682
41 *108:27 *452:10 0.000357952
42 *188:10 *1714:A1 5.52302e-05
43 *189:16 *1714:A1 1.55885e-05
44 *191:10 *1713:A 8.50152e-05
45 *191:10 *452:36 0.000193118
46 *191:10 *452:51 0.000202128
47 *191:23 *452:51 0.000363705
48 *273:12 *1846:B2 1.03968e-05
49 *383:16 *452:10 0
50 *451:32 *452:10 8.91726e-05
51 *451:45 *452:10 1.99099e-05
52 *451:45 *452:23 4.66203e-05
53 *451:45 *452:36 0
54 *451:60 *1713:A 3.87582e-05
55 *451:60 *452:23 1.76135e-05
56 *451:60 *452:32 0.000105054
*RES
1 *1999:Q *452:10 19.7643 
2 *452:10 *1633:A1 14.7643 
3 *452:10 *452:23 1.64286 
4 *452:23 *1631:D 13.8 
5 *452:23 *452:32 2.40179 
6 *452:32 *452:36 3.95536 
7 *452:36 *1714:A1 15.3 
8 *452:36 *452:51 10.1429 
9 *452:51 *1798:A 15.5679 
10 *452:51 *452:62 2.85714 
11 *452:62 *1846:B2 16.7107 
12 *452:62 *1799:A 15.4429 
13 *452:32 *1713:A 18.0946 
*END

*D_NET *453 0.00702771
*CONN
*I *1847:A I *D sky130_fd_sc_hd__nand2_2
*I *1895:A I *D sky130_fd_sc_hd__and3_2
*I *1846:A2 I *D sky130_fd_sc_hd__a22o_2
*I *1798:D I *D sky130_fd_sc_hd__and4_2
*I *1712:B I *D sky130_fd_sc_hd__nand2_2
*I *1714:B1 I *D sky130_fd_sc_hd__a22oi_2
*I *1713:D I *D sky130_fd_sc_hd__and4_2
*I *2000:Q O *D sky130_fd_sc_hd__dfxtp_2
*CAP
1 *1847:A 0.000191888
2 *1895:A 4.00275e-05
3 *1846:A2 3.64998e-06
4 *1798:D 3.82742e-05
5 *1712:B 0.000149295
6 *1714:B1 4.34575e-05
7 *1713:D 0
8 *2000:Q 0.000540507
9 *453:73 0.000412422
10 *453:62 0.000361414
11 *453:40 0.000187569
12 *453:38 0.000487553
13 *453:21 0.000463858
14 *453:10 0.000650612
15 *1712:B *1712:A 9.90367e-05
16 *1712:B *1798:B 9.71197e-05
17 *1798:D *469:32 2.59355e-05
18 *1846:A2 *1846:B1 1.46576e-05
19 *1846:A2 *469:42 1.33343e-05
20 *1847:A *1847:B 5.92869e-05
21 *453:10 *468:20 0.000121606
22 *453:10 *468:31 9.34004e-05
23 *453:10 *468:42 4.46186e-06
24 *453:21 *468:42 4.34366e-05
25 *453:38 *1712:A 2.61337e-05
26 *453:38 *468:42 1.37442e-05
27 *453:38 *468:51 0.000397223
28 *453:38 *469:42 5.41794e-05
29 *453:62 *1799:B 3.34366e-05
30 *453:62 *469:42 0.000170661
31 *453:73 *1799:B 8.5662e-05
32 *1682:B1_N *453:10 0
33 *1714:A1 *1714:B1 1.09281e-05
34 *1714:A1 *453:38 9.30603e-06
35 *1799:A *453:73 0.000118903
36 *1800:A1 *1712:B 3.8274e-05
37 *1800:A1 *1798:D 9.41642e-05
38 *1848:A1 *1847:A 5.52238e-05
39 *1848:B1 *1847:A 6.51946e-05
40 *1848:B1 *453:73 0.000132198
41 *141:14 *453:10 0.000193631
42 *155:12 *453:10 0.000361914
43 *188:10 *1714:B1 1.21258e-05
44 *189:16 *1714:B1 5.33005e-05
45 *273:12 *1846:A2 6.59012e-07
46 *451:10 *453:10 5.66647e-05
47 *451:21 *453:10 6.07232e-05
48 *451:32 *453:10 0.000124713
49 *451:45 *453:10 6.39901e-05
50 *452:23 *453:10 0
51 *452:32 *453:10 0
52 *452:36 *453:10 2.11543e-05
53 *452:36 *453:21 0.000145753
54 *452:36 *453:38 3.9838e-05
55 *452:51 *453:38 0.00037189
56 *452:62 *453:62 1.91414e-05
57 *452:62 *453:73 5.41794e-05
*RES
1 *2000:Q *453:10 28.8893 
2 *453:10 *1713:D 13.8 
3 *453:10 *453:21 2.48214 
4 *453:21 *1714:B1 14.7643 
5 *453:21 *453:38 10.8036 
6 *453:38 *453:40 4.5 
7 *453:40 *1712:B 12.7464 
8 *453:40 *1798:D 10.2464 
9 *453:38 *453:62 3.39286 
10 *453:62 *1846:A2 13.9473 
11 *453:62 *453:73 5.28571 
12 *453:73 *1895:A 14.3357 
13 *453:73 *1847:A 17.6393 
*END

*D_NET *454 0.00641095
*CONN
*I *1613:A2 I *D sky130_fd_sc_hd__a22oi_2
*I *1612:A I *D sky130_fd_sc_hd__nand4_2
*I *1675:B1 I *D sky130_fd_sc_hd__a22oi_2
*I *1627:C I *D sky130_fd_sc_hd__and4_2
*I *1623:A1 I *D sky130_fd_sc_hd__a22o_2
*I *1684:B I *D sky130_fd_sc_hd__nand4_4
*I *1614:B I *D sky130_fd_sc_hd__and4_2
*I *1685:B2 I *D sky130_fd_sc_hd__a22o_4
*I *2048:X O *D sky130_fd_sc_hd__buf_6
*CAP
1 *1613:A2 0
2 *1612:A 0.000153863
3 *1675:B1 0.000181589
4 *1627:C 0
5 *1623:A1 0
6 *1684:B 6.47689e-05
7 *1614:B 0.000248023
8 *1685:B2 0
9 *2048:X 5.92025e-05
10 *454:56 0.000285657
11 *454:49 0.000180923
12 *454:43 0.00079531
13 *454:39 0.000640347
14 *454:19 0.000363506
15 *454:10 0.000214612
16 *454:6 0.000298854
17 *1614:B *1614:D 0.00014183
18 *1675:B1 *1622:A1 5.31113e-05
19 *1675:B1 *1627:A 0.000108274
20 *1675:B1 *1675:A1 0.000173083
21 *1675:B1 *497:81 5.33005e-05
22 *1684:B *1685:A2 0.000128154
23 *454:10 *1685:A2 1.02504e-05
24 *454:19 *1685:A2 8.07879e-05
25 *454:43 *1613:B2 5.71472e-05
26 *454:43 *1623:B1 5.33005e-05
27 *454:43 *513:23 0.000224484
28 *454:49 *1623:B1 0.000125724
29 *454:56 *1968:B 0.000178859
30 *1610:D *1675:B1 1.89507e-06
31 *1612:B *1612:A 1.83136e-05
32 *1612:B *454:43 1.21258e-05
33 *1612:D *454:43 0.000141734
34 *1623:A2 *454:56 5.89536e-05
35 *1627:B *1675:B1 0.000215605
36 *1627:B *454:56 5.52302e-05
37 *1627:D *1675:B1 4.38128e-05
38 *1627:D *454:56 0.000180777
39 *1676:B *1675:B1 9.14786e-05
40 *1685:B1 *1614:B 1.02936e-05
41 *91:12 *1612:A 5.45307e-05
42 *438:46 *454:56 0.00031407
43 *439:34 *454:43 2.95641e-05
44 *439:40 *454:43 1.92905e-05
45 *440:25 *454:43 5.52302e-05
46 *440:38 *454:10 0
47 *440:38 *454:43 7.17136e-05
48 *440:53 *1614:B 2.14658e-05
49 *440:53 *454:10 0
50 *440:66 *1614:B 0.000139907
51 *440:66 *1684:B 0
52 *440:66 *454:19 0
53 *440:75 *1684:B 0
54 *441:19 *454:10 0
55 *442:32 *1675:B1 0
*RES
1 *2048:X *454:6 10.2464 
2 *454:6 *454:10 7.05357 
3 *454:10 *1685:B2 13.8 
4 *454:10 *454:19 1.03571 
5 *454:19 *1614:B 17.2107 
6 *454:19 *1684:B 15.4429 
7 *454:6 *454:39 1.35714 
8 *454:39 *454:43 10.8214 
9 *454:43 *454:49 10.6429 
10 *454:49 *1623:A1 9.3 
11 *454:49 *454:56 4.64286 
12 *454:56 *1627:C 9.3 
13 *454:56 *1675:B1 24.7107 
14 *454:43 *1612:A 11.9071 
15 *454:39 *1613:A2 9.3 
*END

*D_NET *455 0.00600037
*CONN
*I *1666:B1 I *D sky130_fd_sc_hd__a22o_2
*I *1654:C I *D sky130_fd_sc_hd__nand4_2
*I *1653:C I *D sky130_fd_sc_hd__and4_2
*I *1648:B2 I *D sky130_fd_sc_hd__a22o_2
*I *1645:B I *D sky130_fd_sc_hd__and2_4
*I *1729:A I *D sky130_fd_sc_hd__nand2_2
*I *2049:X O *D sky130_fd_sc_hd__dlymetal6s4s_1
*CAP
1 *1666:B1 9.91681e-06
2 *1654:C 0.000190265
3 *1653:C 1.97574e-05
4 *1648:B2 0
5 *1645:B 0
6 *1729:A 0.000118754
7 *2049:X 0.000306969
8 *455:60 0.000284405
9 *455:49 0.000410283
10 *455:34 0.00045102
11 *455:12 0.000118754
12 *455:10 0.000451686
13 *1654:C *1654:A 5.52238e-05
14 *1654:C *2072:A 0
15 *1654:C *519:95 0
16 *1666:B1 *1666:A1 5.50052e-05
17 *455:10 *465:61 8.25843e-06
18 *455:49 *1648:A2 3.34366e-05
19 *455:49 *1653:A 0.000738856
20 *455:49 *2072:A 0.000168937
21 *455:60 *1666:A1 2.20552e-05
22 *1645:A *1729:A 1.04232e-05
23 *1648:B1 *455:34 5.33005e-05
24 *1648:B1 *455:49 4.27935e-05
25 *1653:B *455:49 5.50052e-05
26 *1654:B *1654:C 0.000173804
27 *1666:B2 *455:60 0.000216439
28 *1729:B *1729:A 3.93247e-05
29 *1737:A *455:34 2.79421e-05
30 *1737:A *455:49 1.58163e-05
31 *124:10 *455:10 0
32 *132:6 *1666:B1 2.38501e-05
33 *132:6 *455:60 0.0001871
34 *215:6 *455:34 1.98839e-05
35 *229:22 *455:34 0
36 *234:30 *1729:A 0.000301121
37 *347:12 *455:49 0.000197523
38 *446:38 *455:49 9.84729e-05
39 *446:38 *455:60 5.49995e-05
40 *446:87 *455:60 5.33005e-05
41 *447:35 *455:34 2.31791e-05
42 *447:37 *455:10 0.00014576
43 *447:37 *455:34 0.000147474
44 *447:69 *455:10 0.000225616
45 *448:34 *1729:A 0.000443654
*RES
1 *2049:X *455:10 18.3357 
2 *455:10 *455:12 4.5 
3 *455:12 *1729:A 14.3893 
4 *455:12 *1645:B 9.3 
5 *455:10 *455:34 7.69643 
6 *455:34 *1648:B2 9.3 
7 *455:34 *455:49 20.0179 
8 *455:49 *1653:C 9.72857 
9 *455:49 *455:60 3.42857 
10 *455:60 *1654:C 21.6929 
11 *455:60 *1666:B1 9.83571 
*END

*D_NET *456 0.000925892
*CONN
*I *1959:A1 I *D sky130_fd_sc_hd__mux2_1
*I *2025:X O *D sky130_fd_sc_hd__dlygate4sd3_1
*CAP
1 *1959:A1 0.000197751
2 *2025:X 0.000197751
3 *1959:A1 *1959:A0 0.000410505
4 *1959:A1 *1961:A1 0.000109806
5 *3:24 *1959:A1 1.0078e-05
*RES
1 *2025:X *1959:A1 33.0286 
*END

*D_NET *457 0.00030688
*CONN
*I *1957:A1 I *D sky130_fd_sc_hd__mux2_1
*I *2026:X O *D sky130_fd_sc_hd__dlygate4sd3_1
*CAP
1 *1957:A1 0.000124423
2 *2026:X 0.000124423
3 *1957:A1 *1957:S 2.90501e-05
4 *3:46 *1957:A1 2.89839e-05
*RES
1 *2026:X *1957:A1 29.7786 
*END

*D_NET *458 0.00306913
*CONN
*I *1961:A1 I *D sky130_fd_sc_hd__mux2_1
*I *2027:X O *D sky130_fd_sc_hd__dlygate4sd3_1
*CAP
1 *1961:A1 0.0010826
2 *2027:X 0.0010826
3 *1961:A1 *1957:A0 0.000111997
4 *1961:A1 *1957:S 0.000183993
5 *1961:A1 *1959:A0 1.12578e-05
6 *1961:A1 *1959:S 0.000182806
7 *1961:A1 *2029:A 0.000176466
8 *1959:A1 *1961:A1 0.000109806
9 *1984:D *1961:A1 0
10 *2061:A *1961:A1 0
11 *3:24 *1961:A1 3.17866e-05
12 *3:46 *1961:A1 6.72825e-05
13 *409:38 *1961:A1 2.85321e-05
*RES
1 *2027:X *1961:A1 43.8321 
*END

*D_NET *459 0.000424037
*CONN
*I *1972:A I *D sky130_fd_sc_hd__and2_2
*I *2028:X O *D sky130_fd_sc_hd__dlygate4sd3_1
*CAP
1 *1972:A 0.000134892
2 *2028:X 0.000134892
3 *1972:A *1973:B 7.25873e-06
4 *1972:A *493:57 5.4959e-05
5 *1973:A *1972:A 9.20361e-05
6 *1993:D *1972:A 0
*RES
1 *2028:X *1972:A 30.3143 
*END

*D_NET *460 0.00217192
*CONN
*I *1963:A_N I *D sky130_fd_sc_hd__and3b_2
*I *2029:X O *D sky130_fd_sc_hd__dlygate4sd3_1
*CAP
1 *1963:A_N 0.000404747
2 *2029:X 0.000404747
3 *1963:A_N *1963:B 3.93885e-05
4 *1963:A_N *1963:C 0.000442311
5 *1963:A_N *2070:A 0.000223592
6 *1963:A_N *478:45 8.35252e-05
7 *1981:D *1963:A_N 0.000148514
8 *1984:CLK *1963:A_N 0.000227539
9 *1984:D *1963:A_N 0.000108432
10 *1986:D *1963:A_N 0
11 *2061:A *1963:A_N 4.19535e-05
12 *409:38 *1963:A_N 4.71712e-05
*RES
1 *2029:X *1963:A_N 39.0643 
*END

*D_NET *461 0.000171099
*CONN
*I *1975:A I *D sky130_fd_sc_hd__and2_2
*I *2030:X O *D sky130_fd_sc_hd__dlygate4sd3_1
*CAP
1 *1975:A 5.67437e-05
2 *2030:X 5.67437e-05
3 *444:12 *1975:A 5.76121e-05
*RES
1 *2030:X *1975:A 19.9571 
*END

*D_NET *462 0.000784667
*CONN
*I *1979:A I *D sky130_fd_sc_hd__and2_2
*I *2031:X O *D sky130_fd_sc_hd__dlygate4sd3_1
*CAP
1 *1979:A 0.000277896
2 *2031:X 0.000277896
3 *422:24 *1979:A 0.000129838
4 *449:8 *1979:A 9.90367e-05
*RES
1 *2031:X *1979:A 32.6179 
*END

*D_NET *463 0.00114431
*CONN
*I *1976:A I *D sky130_fd_sc_hd__and2_2
*I *2032:X O *D sky130_fd_sc_hd__dlygate4sd3_1
*CAP
1 *1976:A 0.00030355
2 *2032:X 0.00030355
3 *1976:A *1976:B 0
4 *1976:A *494:47 0
5 *1999:D *1976:A 2.79092e-05
6 *449:19 *1976:A 0.000509296
*RES
1 *2032:X *1976:A 35.0464 
*END

*D_NET *464 0.000165058
*CONN
*I *1974:A I *D sky130_fd_sc_hd__and2_2
*I *2033:X O *D sky130_fd_sc_hd__dlygate4sd3_1
*CAP
1 *1974:A 3.20492e-05
2 *2033:X 3.20492e-05
3 *1974:A *494:23 0.00010096
*RES
1 *2033:X *1974:A 19.5464 
*END

*D_NET *465 0.0071111
*CONN
*I *1649:B I *D sky130_fd_sc_hd__nand2_2
*I *1733:D I *D sky130_fd_sc_hd__and4bb_2
*I *1732:A2_N I *D sky130_fd_sc_hd__o2bb2a_2
*I *1752:A I *D sky130_fd_sc_hd__and3_2
*I *1856:A1 I *D sky130_fd_sc_hd__a22o_2
*I *1753:B I *D sky130_fd_sc_hd__nand2_2
*I *2050:X O *D sky130_fd_sc_hd__clkdlybuf4s25_1
*CAP
1 *1649:B 0.000271481
2 *1733:D 4.222e-05
3 *1732:A2_N 0.000291695
4 *1752:A 0
5 *1856:A1 0.00039086
6 *1753:B 0
7 *2050:X 0.000189444
8 *465:63 0.000419594
9 *465:61 0.000751282
10 *465:48 0.000527422
11 *465:24 0.000717791
12 *465:12 0.000649676
13 *1649:B *2072:A 0
14 *1732:A2_N *2072:A 0
15 *465:12 *466:23 6.74911e-05
16 *465:12 *466:38 0.000117378
17 *465:61 *1646:A 0.000186669
18 *465:63 *1646:A 0
19 y[0] *465:12 0
20 *1646:C *1649:B 0
21 *1646:C *465:61 0.000373325
22 *1650:A *1649:B 0
23 *1650:B *1649:B 5.16852e-05
24 *1651:A1 *1649:B 0
25 *1731:A2 *465:12 0.000200413
26 *1731:B1 *465:12 1.41029e-05
27 *1732:A1_N *1732:A2_N 0.000201989
28 *1732:B1 *1732:A2_N 2.32625e-05
29 *1732:B2 *1732:A2_N 8.18686e-05
30 *1752:B *465:48 4.08637e-05
31 *1754:A1 *465:24 0.000145357
32 *1754:A2 *465:24 0.000175512
33 *1754:B1 *465:24 9.80173e-05
34 *1756:C *465:24 2.44318e-05
35 *1757:B *465:24 0.000137983
36 *2012:CLK *1856:A1 0
37 *2049:A *465:12 0
38 *208:10 *1649:B 2.05938e-05
39 *211:8 *1733:D 9.60939e-05
40 *421:127 *1856:A1 0
41 *447:69 *465:61 9.80561e-05
42 *447:80 *1649:B 7.90803e-05
43 *447:80 *1732:A2_N 2.31791e-05
44 *447:80 *465:63 0.000146474
45 *448:28 *1856:A1 7.55006e-05
46 *448:34 *465:24 0.000178847
47 *449:56 *465:24 0.000139907
48 *449:56 *465:48 5.33005e-05
49 *455:10 *465:61 8.25843e-06
*RES
1 *2050:X *465:12 23.2107 
2 *465:12 *465:24 17.2679 
3 *465:24 *1753:B 9.3 
4 *465:24 *1856:A1 25.175 
5 *465:12 *465:48 2.5 
6 *465:48 *1752:A 9.3 
7 *465:48 *465:61 12.9821 
8 *465:61 *465:63 1.94643 
9 *465:63 *1732:A2_N 19.5857 
10 *465:63 *1733:D 14.7464 
11 *465:61 *1649:B 18.7821 
*END

*D_NET *466 0.00601912
*CONN
*I *1737:B I *D sky130_fd_sc_hd__and2_2
*I *1871:B I *D sky130_fd_sc_hd__and3_2
*I *1857:B I *D sky130_fd_sc_hd__nand2_2
*I *1856:B1 I *D sky130_fd_sc_hd__a22o_2
*I *1755:A2 I *D sky130_fd_sc_hd__a21oi_2
*I *1756:B I *D sky130_fd_sc_hd__and3_2
*I *2051:X O *D sky130_fd_sc_hd__clkdlybuf4s25_1
*CAP
1 *1737:B 0
2 *1871:B 5.17462e-05
3 *1857:B 9.60355e-05
4 *1856:B1 6.82448e-05
5 *1755:A2 0
6 *1756:B 0.000260456
7 *2051:X 0.0004251
8 *466:52 0.000438148
9 *466:42 0.000429058
10 *466:38 0.000427385
11 *466:23 0.000776349
12 *466:6 0.00113796
13 diag_done *466:6 9.33978e-07
14 diag_done *466:23 7.33786e-06
15 *1731:A2 *466:38 6.8646e-06
16 *1737:A *1871:B 1.28412e-05
17 *1737:A *466:42 5.04152e-05
18 *1754:A1 *1756:B 0
19 *1754:A2 *1756:B 0
20 *1755:B1 *1756:B 0
21 *1755:B1 *466:38 0
22 *1756:A *1756:B 6.75007e-05
23 *1757:A *1756:B 0
24 *1757:A *466:38 8.89385e-05
25 *1856:A2 *1856:B1 3.21283e-05
26 *1856:A2 *466:52 0.000126102
27 *1858:A1 *466:38 0
28 *1858:A1 *466:42 1.04232e-05
29 *1858:A1 *466:52 7.77652e-05
30 *1858:A2 *1857:B 5.32071e-05
31 *1908:A1 *466:38 0
32 *1908:A1 *466:52 1.1068e-05
33 *2050:A *466:23 5.41609e-05
34 *2051:A *466:6 4.05411e-05
35 *124:10 *466:38 0
36 *229:22 *466:38 0.000146619
37 *230:23 *466:38 0
38 *233:8 *1756:B 5.80706e-06
39 *233:23 *466:52 1.98839e-05
40 *334:12 *466:52 0.00020375
41 *335:12 *466:52 4.27842e-06
42 *448:28 *1856:B1 5.72256e-05
43 *449:23 *1857:B 8.91963e-06
44 *449:23 *466:52 6.14702e-06
45 *449:40 *466:52 0.00026788
46 *449:48 *466:38 9.91086e-05
47 *449:48 *466:42 5.33334e-05
48 *449:48 *466:52 7.49387e-06
49 *449:50 *466:38 0.000101545
50 *449:56 *466:38 0.000101545
51 *465:12 *466:23 6.74911e-05
52 *465:12 *466:38 0.000117378
*RES
1 *2051:X *466:6 14.3536 
2 *466:6 *1756:B 23.2821 
3 *466:6 *466:23 10.7857 
4 *466:23 *1755:A2 13.8 
5 *466:23 *466:38 12.9821 
6 *466:38 *466:42 2.91071 
7 *466:42 *466:52 15.9107 
8 *466:52 *1856:B1 10.6571 
9 *466:52 *1857:B 20.3714 
10 *466:42 *1871:B 10.2643 
11 *466:38 *1737:B 9.3 
*END

*D_NET *467 0.0105786
*CONN
*I *1714:B2 I *D sky130_fd_sc_hd__a22oi_2
*I *1713:B I *D sky130_fd_sc_hd__and4_2
*I *1631:B I *D sky130_fd_sc_hd__and4_2
*I *1633:A2 I *D sky130_fd_sc_hd__a22o_2
*I *1663:A1 I *D sky130_fd_sc_hd__a22oi_2
*I *1679:A1 I *D sky130_fd_sc_hd__a31oi_2
*I *1638:A I *D sky130_fd_sc_hd__nand2_2
*I *1639:A I *D sky130_fd_sc_hd__and4_2
*I *2052:X O *D sky130_fd_sc_hd__clkbuf_2
*CAP
1 *1714:B2 4.97194e-05
2 *1713:B 0.000234068
3 *1631:B 0.000235669
4 *1633:A2 9.55816e-05
5 *1663:A1 2.04425e-05
6 *1679:A1 0.000138035
7 *1638:A 0.000118041
8 *1639:A 0.000161434
9 *2052:X 0.00159223
10 *467:86 0.000599397
11 *467:71 0.000596897
12 *467:60 0.00021727
13 *467:49 0.000215679
14 *467:27 0.00044961
15 *467:21 0.0003127
16 *467:10 0.00175366
17 *1633:A2 *468:14 2.45656e-05
18 *467:49 *1639:C 0.00012401
19 *467:60 *1639:C 9.25014e-06
20 *467:60 *468:80 0.00013966
21 *467:86 *469:16 4.58194e-05
22 *1635:C_N *467:86 2.49484e-05
23 *1636:A1 *467:86 3.38136e-05
24 *1638:B *1638:A 5.52302e-05
25 *1660:A1 *467:10 0.000128496
26 *1660:A2 *467:10 3.48705e-05
27 *1665:B *467:10 1.5424e-05
28 *1713:A *1713:B 0.000263524
29 *1720:A *467:86 0
30 *108:27 *1663:A1 2.59355e-05
31 *109:14 *1663:A1 5.33005e-05
32 *110:6 *1631:B 4.35336e-05
33 *112:10 *1633:A2 7.32173e-05
34 *112:10 *467:60 2.94103e-05
35 *112:10 *467:71 6.5185e-05
36 *112:10 *467:86 3.17163e-05
37 *118:19 *467:10 3.02355e-05
38 *122:6 *467:10 0.000182694
39 *122:39 *467:10 8.07313e-05
40 *141:14 *1639:A 9.31011e-05
41 *141:14 *467:10 0.000187631
42 *143:6 *467:10 0.000122091
43 *144:10 *467:10 0.000186662
44 *191:10 *1714:B2 6.42242e-05
45 *383:10 *1679:A1 0.000216098
46 *383:10 *467:27 5.53052e-05
47 *383:16 *467:27 2.04825e-05
48 *383:16 *467:49 0.000231955
49 *383:16 *467:60 0.000209491
50 *383:16 *467:71 0.000117189
51 *383:16 *467:86 0.000311502
52 *450:19 *1679:A1 0.000139783
53 *450:38 *1679:A1 9.69119e-06
54 *450:51 *467:49 6.8646e-06
55 *450:64 *467:60 4.038e-06
56 *450:64 *467:86 0
57 *451:10 *1638:A 2.89016e-05
58 *451:60 *1631:B 0.00014183
59 *451:60 *1714:B2 0.000125724
*RES
1 *2052:X *467:10 33.8 
2 *467:10 *1639:A 11.4964 
3 *467:10 *467:21 4.5 
4 *467:21 *467:27 7.91071 
5 *467:27 *1638:A 11.4964 
6 *467:27 *1679:A1 23.2821 
7 *467:21 *467:49 3.16071 
8 *467:49 *1663:A1 14.3357 
9 *467:49 *467:60 2.85714 
10 *467:60 *1633:A2 15.7464 
11 *467:60 *467:71 1.64286 
12 *467:71 *1631:B 16.8 
13 *467:71 *467:86 10.3393 
14 *467:86 *1713:B 12.3 
15 *467:86 *1714:B2 19.9429 
*END

*D_NET *468 0.0104114
*CONN
*I *1663:B1 I *D sky130_fd_sc_hd__a22oi_2
*I *1639:C I *D sky130_fd_sc_hd__and4_2
*I *1633:B2 I *D sky130_fd_sc_hd__a22o_2
*I *1712:A I *D sky130_fd_sc_hd__nand2_2
*I *1798:B I *D sky130_fd_sc_hd__and4_2
*I *1714:A2 I *D sky130_fd_sc_hd__a22oi_2
*I *1713:C I *D sky130_fd_sc_hd__and4_2
*I *1631:A I *D sky130_fd_sc_hd__and4_2
*I *2053:X O *D sky130_fd_sc_hd__clkbuf_2
*CAP
1 *1663:B1 0
2 *1639:C 0.000130914
3 *1633:B2 0
4 *1712:A 6.70041e-05
5 *1798:B 7.03212e-05
6 *1714:A2 0
7 *1713:C 2.3671e-05
8 *1631:A 7.19737e-05
9 *2053:X 0.00214922
10 *468:80 0.000185098
11 *468:51 0.000509689
12 *468:42 0.000492811
13 *468:31 0.000242452
14 *468:20 0.000352741
15 *468:14 0.000570318
16 *468:8 0.00259129
17 *468:8 *1748:B 0.000868082
18 *468:8 *496:10 1.03968e-05
19 *1633:A1 *468:14 5.39166e-06
20 *1633:A2 *468:14 2.45656e-05
21 *1640:A *468:8 1.15172e-05
22 *1642:B *468:8 1.21258e-05
23 *1712:B *1712:A 9.90367e-05
24 *1712:B *1798:B 9.71197e-05
25 *1713:A *1713:C 5.52302e-05
26 *1800:A1 *1712:A 5.52238e-05
27 *2082:A *468:8 4.01768e-05
28 *112:10 *468:8 5.52302e-05
29 *112:10 *468:14 0.000180764
30 *119:8 *468:8 9.7659e-05
31 *119:19 *468:8 9.74698e-05
32 *121:10 *468:8 5.33334e-05
33 *450:38 *1639:C 1.98839e-05
34 *450:51 *1639:C 0.000119464
35 *450:51 *468:80 5.80706e-06
36 *450:64 *468:80 7.252e-05
37 *453:10 *468:20 0.000121606
38 *453:10 *468:31 9.34004e-05
39 *453:10 *468:42 4.46186e-06
40 *453:21 *468:42 4.34366e-05
41 *453:38 *1712:A 2.61337e-05
42 *453:38 *468:42 1.37442e-05
43 *453:38 *468:51 0.000397223
44 *467:49 *1639:C 0.00012401
45 *467:60 *1639:C 9.25014e-06
46 *467:60 *468:80 0.00013966
*RES
1 *2053:X *468:8 36.9607 
2 *468:8 *468:14 5.39286 
3 *468:14 *468:20 8.30357 
4 *468:20 *1631:A 14.7464 
5 *468:20 *468:31 2.25 
6 *468:31 *1713:C 14.3357 
7 *468:31 *468:42 2.25 
8 *468:42 *1714:A2 13.8 
9 *468:42 *468:51 9.23214 
10 *468:51 *1798:B 14.7464 
11 *468:51 *1712:A 15.4786 
12 *468:14 *1633:B2 9.3 
13 *468:8 *468:80 6.44643 
14 *468:80 *1639:C 16.3893 
15 *468:80 *1663:B1 13.8 
*END

*D_NET *469 0.00906734
*CONN
*I *1634:B I *D sky130_fd_sc_hd__nand2_2
*I *1717:B I *D sky130_fd_sc_hd__and3_2
*I *1716:B I *D sky130_fd_sc_hd__nand2_2
*I *1798:C I *D sky130_fd_sc_hd__and4_2
*I *1846:A1 I *D sky130_fd_sc_hd__a22o_2
*I *1799:B I *D sky130_fd_sc_hd__nand2_2
*I *2054:X O *D sky130_fd_sc_hd__dlymetal6s4s_1
*CAP
1 *1634:B 0
2 *1717:B 0.00035041
3 *1716:B 0
4 *1798:C 0
5 *1846:A1 1.96961e-05
6 *1799:B 0.000138505
7 *2054:X 0.00163554
8 *469:42 0.000280244
9 *469:32 0.000417286
10 *469:22 0.000371338
11 *469:16 0.000626964
12 *469:8 0.001836
13 *1717:B *1720:B 7.04444e-05
14 *1717:B *470:39 2.8266e-06
15 *1799:B *1846:B1 2.59355e-05
16 *469:42 *1846:B1 2.14757e-05
17 *1634:A *469:8 2.44318e-05
18 *1636:A1 *469:8 0.000443654
19 *1716:A *1717:B 1.98839e-05
20 *1716:A *469:22 1.33343e-05
21 *1717:C *1717:B 0.00020112
22 *1718:B *1717:B 5.33005e-05
23 *1722:B *469:8 2.77143e-05
24 *1724:C *469:8 5.03772e-05
25 *1727:A *469:8 2.89016e-05
26 *1727:B *469:8 6.79057e-05
27 *1797:B1 *469:8 1.72894e-05
28 *1798:D *469:32 2.59355e-05
29 *1800:A1 *469:32 2.95726e-05
30 *1801:A1 *469:32 4.98055e-06
31 *1802:C *469:32 3.92757e-05
32 *1846:A2 *469:42 1.33343e-05
33 *1846:B2 *1846:A1 3.99614e-06
34 *113:14 *469:8 0.000139907
35 *191:23 *1717:B 2.59355e-05
36 *191:23 *469:32 0.000202835
37 *273:12 *1799:B 2.89016e-05
38 *273:12 *469:42 1.98839e-05
39 *383:16 *469:16 0.000505335
40 *451:60 *469:16 0.000508764
41 *451:60 *469:32 2.8266e-06
42 *451:71 *469:32 8.77116e-05
43 *452:51 *469:32 7.57773e-05
44 *452:51 *469:42 0.000101545
45 *452:62 *469:42 0.000116481
46 *453:38 *469:42 5.41794e-05
47 *453:62 *1799:B 3.34366e-05
48 *453:62 *469:42 0.000170661
49 *453:73 *1799:B 8.5662e-05
50 *467:86 *469:16 4.58194e-05
*RES
1 *2054:X *469:8 36.4429 
2 *469:8 *469:16 16.4464 
3 *469:16 *469:22 1.39286 
4 *469:22 *469:32 15.6786 
5 *469:32 *469:42 12.8214 
6 *469:42 *1799:B 21.3893 
7 *469:42 *1846:A1 9.72857 
8 *469:32 *1798:C 9.3 
9 *469:22 *1716:B 9.3 
10 *469:16 *1717:B 23.9786 
11 *469:8 *1634:B 9.3 
*END

*D_NET *470 0.00858157
*CONN
*I *1847:B I *D sky130_fd_sc_hd__nand2_2
*I *1895:B I *D sky130_fd_sc_hd__and3_2
*I *1801:A2 I *D sky130_fd_sc_hd__a21oi_2
*I *1802:B I *D sky130_fd_sc_hd__and3_2
*I *1720:B I *D sky130_fd_sc_hd__and2_2
*I *1846:B1 I *D sky130_fd_sc_hd__a22o_2
*I *2055:X O *D sky130_fd_sc_hd__clkdlybuf4s25_1
*CAP
1 *1847:B 0.00018867
2 *1895:B 0
3 *1801:A2 6.86049e-05
4 *1802:B 0.000141647
5 *1720:B 0.000264407
6 *1846:B1 0.000101017
7 *2055:X 0.000957507
8 *470:39 0.000557899
9 *470:37 0.000470545
10 *470:24 0.000450559
11 *470:16 0.000277164
12 *470:10 0.0013239
13 *1717:B *1720:B 7.04444e-05
14 *1717:B *470:39 2.8266e-06
15 *1717:C *1720:B 0
16 *1717:C *470:39 0
17 *1718:B *1720:B 0.000148189
18 *1720:A *1720:B 1.19309e-05
19 *1799:B *1846:B1 2.59355e-05
20 *1800:A1 *1846:B1 1.24368e-05
21 *1800:A1 *470:37 0.00012747
22 *1800:A2 *470:24 0.00010326
23 *1803:A *1801:A2 5.71472e-05
24 *1846:A2 *1846:B1 1.46576e-05
25 *1846:B2 *1846:B1 0.000137983
26 *1846:B2 *470:24 0
27 *1847:A *1847:B 5.92869e-05
28 *1848:A1 *1847:B 0.00014231
29 *1848:B1 *470:24 0.000271958
30 *1850:C *470:16 0.000150618
31 *1895:C *470:16 1.07719e-05
32 *1896:B *470:16 9.33978e-07
33 *1918:A1 *470:10 0.000166983
34 *1918:A1 *470:16 5.75911e-05
35 *1919:B *470:10 0
36 *1923:A *470:10 0
37 *1931:A *470:10 3.69047e-06
38 *1932:A_N *470:10 0.00025263
39 *1932:B *470:10 0
40 *1937:B1 *470:10 8.00806e-05
41 *2055:A *470:10 5.17614e-05
42 *191:23 *1802:B 9.3111e-05
43 *273:12 *1846:B1 2.68207e-05
44 *275:10 *1801:A2 3.69047e-06
45 *275:10 *470:37 0.000123295
46 *275:25 *470:37 4.80729e-05
47 *276:19 *470:16 0.000106403
48 *276:19 *470:24 0.000166976
49 *276:30 *470:16 0.000151365
50 *277:10 *470:37 4.35452e-05
51 *279:10 *470:39 0
52 *279:19 *470:37 0
53 *323:6 *1847:B 0.000144773
54 *324:6 *1847:B 1.58163e-05
55 *383:16 *1720:B 0.0002005
56 *383:16 *470:10 0.000270317
57 *383:16 *470:16 7.90634e-05
58 *383:16 *470:37 0.000126864
59 *383:16 *470:39 0.000116038
60 *393:12 *470:10 0
61 *395:12 *470:10 8.06331e-05
62 *396:10 *470:10 0
63 *469:42 *1846:B1 2.14757e-05
*RES
1 *2055:X *470:10 32.3357 
2 *470:10 *470:16 9.21429 
3 *470:16 *470:24 12.8929 
4 *470:24 *1846:B1 11.4786 
5 *470:24 *470:37 10.4018 
6 *470:37 *470:39 3.00893 
7 *470:39 *1720:B 20.6036 
8 *470:39 *1802:B 15.5679 
9 *470:37 *1801:A2 15.1482 
10 *470:16 *1895:B 9.3 
11 *470:10 *1847:B 18.3179 
*END

*D_NET *471 0.00526288
*CONN
*I *1954:A I *D sky130_fd_sc_hd__nor2_2
*I *1601:A I *D sky130_fd_sc_hd__inv_2
*I *1950:C1 I *D sky130_fd_sc_hd__a211o_2
*I *2056:X O *D sky130_fd_sc_hd__clkdlybuf4s25_1
*CAP
1 *1954:A 0.00066782
2 *1601:A 0.000535102
3 *1950:C1 0.000386544
4 *2056:X 0.000486236
5 *471:32 0.00130262
6 *1601:A *2001:D 8.33504e-05
7 *1601:A *491:16 0.000404707
8 *1601:A *491:91 4.93447e-05
9 *1950:C1 *1602:A 9.69119e-06
10 *1950:C1 *1943:A 3.57366e-05
11 *1950:C1 *1950:B1 0.000106544
12 *1950:C1 *472:10 6.09963e-05
13 *1954:A *1959:A0 0.000260695
14 *1954:A *1962:A 9.36295e-05
15 *1954:A *491:106 9.72829e-05
16 *1943:B *1950:C1 5.59725e-06
17 *1950:A2 *1950:C1 0
18 *1966:B *1954:A 0
19 *1984:D *1954:A 6.05139e-05
20 *1987:D *1954:A 0.000338783
21 *2007:D *1954:A 0
22 *2021:A *1601:A 6.20656e-05
23 *3:24 *1954:A 0.000187716
24 *3:24 *471:32 2.79092e-05
25 *419:33 *1954:A 0
26 *419:46 *1954:A 0
*RES
1 *2056:X *1950:C1 33.2071 
2 *2056:X *471:32 15.3714 
3 *471:32 *1601:A 23.1214 
4 *471:32 *1954:A 30.8357 
*END

*D_NET *472 0.00134438
*CONN
*I *1602:A I *D sky130_fd_sc_hd__inv_2
*I *1943:A I *D sky130_fd_sc_hd__and2_2
*I *2057:X O *D sky130_fd_sc_hd__clkdlybuf4s25_1
*CAP
1 *1602:A 0.000258789
2 *1943:A 2.03118e-05
3 *2057:X 0.000235485
4 *472:10 0.000514586
5 *1602:A *1950:B1 0
6 *472:10 *1950:B1 1.63453e-05
7 *1943:B *1602:A 1.52717e-05
8 *1943:B *472:10 3.09728e-05
9 *1950:C1 *1602:A 9.69119e-06
10 *1950:C1 *1943:A 3.57366e-05
11 *1950:C1 *472:10 6.09963e-05
12 *1965:A0 *1602:A 3.19917e-05
13 *2035:A *472:10 5.71472e-05
14 *423:12 *472:10 5.70551e-05
*RES
1 *2057:X *472:10 13.675 
2 *472:10 *1943:A 10.0321 
3 *472:10 *1602:A 22.3 
*END

*D_NET *473 0.000812031
*CONN
*I *1957:A0 I *D sky130_fd_sc_hd__mux2_1
*I *2058:X O *D sky130_fd_sc_hd__clkdlybuf4s25_1
*CAP
1 *1957:A0 0.000184875
2 *2058:X 0.000184875
3 *1957:A0 *1957:S 0.000113047
4 *1958:B *1957:A0 7.74068e-05
5 *1961:A1 *1957:A0 0.000111997
6 *3:46 *1957:A0 7.62323e-05
7 *64:20 *1957:A0 6.35976e-05
*RES
1 *2058:X *1957:A0 32.1536 
*END

*D_NET *474 0.00410989
*CONN
*I *2096:A I *D sky130_fd_sc_hd__buf_2
*I *1614:D I *D sky130_fd_sc_hd__and4_2
*I *1768:B I *D sky130_fd_sc_hd__and4_2
*I *1683:A I *D sky130_fd_sc_hd__nand2_2
*I *1684:C I *D sky130_fd_sc_hd__nand4_4
*I *1685:A2 I *D sky130_fd_sc_hd__a22o_4
*I *2059:X O *D sky130_fd_sc_hd__buf_12
*CAP
1 *2096:A 0.000182645
2 *1614:D 0.000113103
3 *1768:B 0
4 *1683:A 1.40355e-05
5 *1684:C 0.000244355
6 *1685:A2 0.000237095
7 *2059:X 7.08317e-05
8 *474:16 0.000765666
9 *474:10 0.000668751
10 *474:8 0.000145584
11 *1683:A *497:14 2.89114e-05
12 *474:8 *495:20 2.00751e-05
13 *474:8 *495:22 5.0725e-05
14 *474:8 *495:26 4.1331e-06
15 *474:10 *495:26 6.26559e-05
16 *474:16 *485:12 7.98681e-05
17 *474:16 *485:14 0
18 *474:16 *485:20 0
19 *474:16 *495:26 0.000124333
20 *1614:B *1614:D 0.00014183
21 *1684:B *1685:A2 0.000128154
22 *1685:B1 *1614:D 5.33334e-05
23 *1685:B1 *1685:A2 5.71472e-05
24 *1687:C *474:16 9.87983e-06
25 *1767:A *474:16 1.05898e-05
26 *1767:B *474:16 0.000353514
27 *162:8 *474:16 7.17603e-05
28 *162:17 *474:16 6.59931e-05
29 *440:53 *1685:A2 1.19402e-05
30 *440:66 *1614:D 1.97695e-05
31 *440:66 *1685:A2 2.89114e-05
32 *440:75 *474:16 0
33 *441:36 *1685:A2 0
34 *441:46 *1683:A 5.52302e-05
35 *441:46 *474:16 0
36 *441:52 *474:10 5.97719e-05
37 *441:52 *474:16 4.46186e-06
38 *441:61 *474:8 0.000103041
39 *441:61 *474:10 3.07555e-05
40 *454:10 *1685:A2 1.02504e-05
41 *454:19 *1685:A2 8.07879e-05
*RES
1 *2059:X *474:8 16.3536 
2 *474:8 *474:10 2.25 
3 *474:10 *474:16 13.2321 
4 *474:16 *1685:A2 16.8893 
5 *474:16 *1684:C 14.7464 
6 *474:10 *1683:A 14.3357 
7 *474:8 *1768:B 13.8 
8 *1685:A2 *1614:D 21.2071 
9 *1684:C *2096:A 21.6357 
*END

*D_NET *475 0.00134856
*CONN
*I *1959:A0 I *D sky130_fd_sc_hd__mux2_1
*I *2060:X O *D sky130_fd_sc_hd__clkdlybuf4s25_1
*CAP
1 *1959:A0 0.000333053
2 *2060:X 0.000333053
3 *1954:A *1959:A0 0.000260695
4 *1959:A1 *1959:A0 0.000410505
5 *1961:A1 *1959:A0 1.12578e-05
*RES
1 *2060:X *1959:A0 35.7607 
*END

*D_NET *476 0.00102855
*CONN
*I *1961:A0 I *D sky130_fd_sc_hd__mux2_1
*I *2061:X O *D sky130_fd_sc_hd__clkdlybuf4s25_1
*CAP
1 *1961:A0 0.000162345
2 *2061:X 0.000162345
3 *1961:A0 *1961:S 6.49987e-05
4 *1981:D *1961:A0 0.000227179
5 *409:38 *1961:A0 0.00041168
*RES
1 *2061:X *1961:A0 23.6536 
*END

*D_NET *477 0.00165454
*CONN
*I *1963:C I *D sky130_fd_sc_hd__and3b_2
*I *2062:X O *D sky130_fd_sc_hd__clkdlybuf4s25_1
*CAP
1 *1963:C 0.000552407
2 *2062:X 0.000552407
3 *1963:C *1963:B 5.20359e-06
4 *1963:C *1969:B 0.000102207
5 *1963:A_N *1963:C 0.000442311
6 *420:12 *1963:C 0
*RES
1 *2062:X *1963:C 35.292 
*END

*D_NET *478 0.00715279
*CONN
*I *1957:S I *D sky130_fd_sc_hd__mux2_1
*I *2070:A I *D sky130_fd_sc_hd__clkdlybuf4s25_1
*I *1961:S I *D sky130_fd_sc_hd__mux2_1
*I *2029:A I *D sky130_fd_sc_hd__dlygate4sd3_1
*I *1959:S I *D sky130_fd_sc_hd__mux2_1
*I *1965:A1 I *D sky130_fd_sc_hd__mux2_1
*I *1987:Q O *D sky130_fd_sc_hd__dfxtp_2
*CAP
1 *1957:S 0.000322166
2 *2070:A 0.000776881
3 *1961:S 9.19631e-05
4 *2029:A 5.48761e-05
5 *1959:S 6.85292e-05
6 *1965:A1 0.0001559
7 *1987:Q 0
8 *478:45 0.00104495
9 *478:23 0.000123405
10 *478:21 0.000401836
11 *478:8 0.000638639
12 *478:4 0.000579178
13 *2070:A *1963:B 8.32242e-05
14 *2070:A *492:10 8.63951e-05
15 *2070:A *492:34 0.000160264
16 *1957:A0 *1957:S 0.000113047
17 *1957:A1 *1957:S 2.90501e-05
18 *1958:B *1957:S 0.000268767
19 *1958:B *1965:A1 0.00010096
20 *1961:A0 *1961:S 6.49987e-05
21 *1961:A1 *1957:S 0.000183993
22 *1961:A1 *1959:S 0.000182806
23 *1961:A1 *2029:A 0.000176466
24 *1963:A_N *2070:A 0.000223592
25 *1963:A_N *478:45 8.35252e-05
26 *1981:CLK *1965:A1 3.29297e-05
27 *1981:CLK *478:21 0.000115591
28 *1981:D *478:21 4.93636e-05
29 *1981:D *478:45 4.41329e-06
30 *1983:CLK *478:45 0
31 *1985:D *2070:A 0
32 *1986:D *2070:A 0
33 *2026:A *1957:S 0.000126416
34 *3:46 *1957:S 9.8961e-06
35 *3:46 *1959:S 6.30226e-05
36 *3:46 *2029:A 6.70939e-05
37 *409:38 *1961:S 5.49995e-05
38 *409:38 *478:45 4.13617e-05
39 *419:46 *1965:A1 0.000224946
40 *441:10 *2070:A 0.000347347
*RES
1 *1987:Q *478:4 9.3 
2 *478:4 *478:8 7.5 
3 *478:8 *1965:A1 17.9071 
4 *478:8 *478:21 3.76786 
5 *478:21 *478:23 4.5 
6 *478:23 *1959:S 11.4964 
7 *478:23 *2029:A 11.4964 
8 *478:21 *478:45 3.69643 
9 *478:45 *1961:S 15.5679 
10 *478:45 *2070:A 30.1393 
11 *478:4 *1957:S 25.7464 
*END

*D_NET *479 0.000412301
*CONN
*I *2071:A I *D sky130_fd_sc_hd__clkdlybuf4s25_1
*I *1988:Q O *D sky130_fd_sc_hd__dfxtp_2
*CAP
1 *2071:A 0.000204134
2 *1988:Q 0.000204134
3 *1756:A *2071:A 4.0342e-06
4 *2011:D *2071:A 0
5 *2050:A *2071:A 0
*RES
1 *1988:Q *2071:A 30.4929 
*END

*D_NET *480 0.00345748
*CONN
*I *2072:A I *D sky130_fd_sc_hd__clkdlybuf4s25_1
*I *1935:Y O *D sky130_fd_sc_hd__nor2_2
*CAP
1 *2072:A 0.000772926
2 *1935:Y 0.000772926
3 *2072:A *1646:A 0.000126446
4 *2072:A *1648:A2 2.39876e-05
5 *2072:A *519:10 2.8266e-06
6 *2072:A *519:38 0.000108824
7 *2072:A *519:95 0.000173804
8 *1646:C *2072:A 0.000218012
9 *1648:A1 *2072:A 0.000195562
10 *1649:B *2072:A 0
11 *1654:C *2072:A 0
12 *1654:D *2072:A 9.90367e-05
13 *1732:A2_N *2072:A 0
14 *347:12 *2072:A 0.000101813
15 *383:10 *2072:A 0
16 *446:87 *2072:A 0.000692379
17 *447:113 *2072:A 0
18 *455:49 *2072:A 0.000168937
*RES
1 *1935:Y *2072:A 47.7964 
*END

*D_NET *481 0.000382094
*CONN
*I *2073:A I *D sky130_fd_sc_hd__clkdlybuf4s25_1
*I *1936:Y O *D sky130_fd_sc_hd__xnor2_2
*CAP
1 *2073:A 0.000156149
2 *1936:Y 0.000156149
3 y[1] *2073:A 0
4 *340:14 *2073:A 6.97972e-05
*RES
1 *1936:Y *2073:A 30.1893 
*END

*D_NET *482 0.000899676
*CONN
*I *2074:A I *D sky130_fd_sc_hd__dlymetal6s2s_1
*I *1681:Y O *D sky130_fd_sc_hd__xnor2_2
*CAP
1 *2074:A 0.000449838
2 *1681:Y 0.000449838
*RES
1 *1681:Y *2074:A 25.8321 
*END

*D_NET *483 0.000382094
*CONN
*I *2075:A I *D sky130_fd_sc_hd__buf_6
*I *1750:Y O *D sky130_fd_sc_hd__xnor2_2
*CAP
1 *2075:A 0.000156149
2 *1750:Y 0.000156149
3 y[3] *2075:A 0
4 *340:14 *2075:A 6.97972e-05
*RES
1 *1750:Y *2075:A 30.1893 
*END

*D_NET *484 0.000658127
*CONN
*I *2076:A I *D sky130_fd_sc_hd__buf_6
*I *1818:X O *D sky130_fd_sc_hd__xor2_2
*CAP
1 *2076:A 0.000183955
2 *1818:X 0.000183955
3 y[4] *2076:A 0
4 *1744:B *2076:A 0
5 *206:16 *2076:A 9.24395e-05
6 *340:14 *2076:A 0.000197777
*RES
1 *1818:X *2076:A 32.2786 
*END

*D_NET *485 0.00902224
*CONN
*I *1769:B I *D sky130_fd_sc_hd__nand2_2
*I *1832:A1 I *D sky130_fd_sc_hd__a22oi_2
*I *1833:B I *D sky130_fd_sc_hd__and4_2
*I *1768:C I *D sky130_fd_sc_hd__and4_2
*I *1687:B I *D sky130_fd_sc_hd__nand4_2
*I *1686:A2 I *D sky130_fd_sc_hd__a22o_4
*I *1617:B I *D sky130_fd_sc_hd__and3_2
*I *1616:B I *D sky130_fd_sc_hd__nand2_2
*I *2063:X O *D sky130_fd_sc_hd__dlymetal6s2s_1
*CAP
1 *1769:B 0.000388252
2 *1832:A1 1.98319e-05
3 *1833:B 0
4 *1768:C 6.23166e-05
5 *1687:B 0
6 *1686:A2 2.52056e-05
7 *1617:B 0.000122076
8 *1616:B 8.59806e-05
9 *2063:X 9.04744e-05
10 *485:80 0.000517078
11 *485:69 0.000190804
12 *485:20 0.000969289
13 *485:14 0.000873738
14 *485:12 0.000337169
15 *485:10 0.000429856
16 *485:8 0.000289953
17 *1769:B *1885:B 5.33005e-05
18 *1769:B *495:10 2.2716e-05
19 *1832:A1 *495:18 5.52302e-05
20 *485:80 *495:10 1.02504e-05
21 *1617:C *1617:B 3.13209e-06
22 *1686:A1 *485:20 6.63007e-05
23 *1686:B2 *1686:A2 5.52302e-05
24 *1686:B2 *485:20 0.000146533
25 *1688:A *1617:B 3.69047e-06
26 *1688:A *485:20 1.58163e-05
27 *1688:B *485:20 5.30209e-05
28 *1689:A1 *485:20 1.72894e-05
29 *1767:B *485:12 0.000215147
30 *1767:B *485:14 5.80706e-06
31 *1768:A *1768:C 3.14163e-05
32 *1769:A *1769:B 1.97695e-05
33 *1769:A *1832:A1 1.58163e-05
34 *1770:A2 *1769:B 3.30946e-05
35 *1770:A2 *485:80 7.61703e-05
36 *1770:B1 *485:8 5.33005e-05
37 *1832:A2 *485:80 2.04825e-05
38 *1835:A *485:10 3.17148e-05
39 *1835:A *485:69 0.000189455
40 *1835:B *485:69 5.33005e-05
41 *1835:B *485:80 5.33005e-05
42 *1836:A *1769:B 0.000268403
43 *1836:B *1769:B 9.90431e-05
44 *1885:A *485:80 2.23987e-05
45 *1885:C *1769:B 0.000137931
46 *93:19 *1616:B 0.000318309
47 *245:8 *485:10 0.000322453
48 *251:10 *1769:B 0
49 *308:8 *1769:B 0.00012501
50 *309:12 *1769:B 9.71197e-05
51 *360:10 *1769:B 2.32517e-05
52 *438:67 *1616:B 2.26973e-05
53 *438:69 *1616:B 0.000297319
54 *440:75 *485:10 4.00025e-05
55 *440:75 *485:12 0.000404568
56 *440:75 *485:14 9.21958e-05
57 *440:75 *485:20 4.48583e-05
58 *440:86 *485:10 1.18064e-05
59 *441:52 *485:12 0.000127439
60 *441:61 *485:10 0.000440363
61 *441:61 *485:12 2.31791e-05
62 *441:61 *485:69 0.000201127
63 *441:61 *485:80 5.41794e-05
64 *441:72 *485:80 6.54117e-05
65 *474:16 *485:12 7.98681e-05
66 *474:16 *485:14 0
67 *474:16 *485:20 0
*RES
1 *2063:X *485:8 15.1571 
2 *485:8 *485:10 5.58929 
3 *485:10 *485:12 9.53571 
4 *485:12 *485:14 2.25 
5 *485:14 *485:20 14.6964 
6 *485:20 *1616:B 22.3714 
7 *485:20 *1617:B 10.6571 
8 *485:14 *1686:A2 14.3357 
9 *485:12 *1687:B 13.8 
10 *485:10 *1768:C 14.7464 
11 *485:8 *485:69 7.58929 
12 *485:69 *1833:B 9.3 
13 *485:69 *485:80 7.28571 
14 *485:80 *1832:A1 14.3357 
15 *485:80 *1769:B 32.0321 
*END

*D_NET *486 0.000963623
*CONN
*I *2077:A I *D sky130_fd_sc_hd__buf_6
*I *1870:X O *D sky130_fd_sc_hd__xor2_2
*CAP
1 *2077:A 0.000338871
2 *1870:X 0.000338871
3 *340:14 *2077:A 0.000212841
4 *381:8 *2077:A 7.30398e-05
*RES
1 *1870:X *2077:A 35.5464 
*END

*D_NET *487 0.000824927
*CONN
*I *2078:A I *D sky130_fd_sc_hd__buf_6
*I *1907:Y O *D sky130_fd_sc_hd__xnor2_2
*CAP
1 *2078:A 0.00025426
2 *1907:Y 0.00025426
3 y[6] *2078:A 0.000316408
4 *1927:A1 *2078:A 0
*RES
1 *1907:Y *2078:A 33.7429 
*END

*D_NET *488 0.000353496
*CONN
*I *2079:A I *D sky130_fd_sc_hd__buf_6
*I *1928:X O *D sky130_fd_sc_hd__xor2_2
*CAP
1 *2079:A 0.000176748
2 *1928:X 0.000176748
3 *1929:A1 *2079:A 0
*RES
1 *1928:X *2079:A 30.6893 
*END

*D_NET *489 0.000581983
*CONN
*I *2080:A I *D sky130_fd_sc_hd__buf_6
*I *1933:X O *D sky130_fd_sc_hd__xor2_2
*CAP
1 *2080:A 0.00019099
2 *1933:X 0.00019099
3 y[8] *2080:A 5.71472e-05
4 *1933:A *2080:A 0
5 *1937:A1 *2080:A 0.000142856
*RES
1 *1933:X *2080:A 31.5107 
*END

*D_NET *490 0.000561564
*CONN
*I *2081:A I *D sky130_fd_sc_hd__buf_6
*I *1937:X O *D sky130_fd_sc_hd__a21o_2
*CAP
1 *2081:A 0.00016504
2 *1937:X 0.00016504
3 y[9] *2081:A 9.90367e-05
4 *1937:A1 *2081:A 7.72233e-05
5 *1937:B1 *2081:A 5.52238e-05
*RES
1 *1937:X *2081:A 22.0286 
*END

*D_NET *491 0.0134762
*CONN
*I *1958:A I *D sky130_fd_sc_hd__and2_2
*I *1962:A I *D sky130_fd_sc_hd__and2_2
*I *1960:A I *D sky130_fd_sc_hd__and2_2
*I *1966:A I *D sky130_fd_sc_hd__and2_2
*I *1940:A I *D sky130_fd_sc_hd__and2_2
*I *1948:A I *D sky130_fd_sc_hd__and2_2
*I *1944:A I *D sky130_fd_sc_hd__and2_2
*I *1949:A I *D sky130_fd_sc_hd__and2_2
*I *1956:B1 I *D sky130_fd_sc_hd__o21a_2
*I *1947:A I *D sky130_fd_sc_hd__and2_2
*I *2021:X O *D sky130_fd_sc_hd__clkdlybuf4s25_1
*CAP
1 *1958:A 0.000232295
2 *1962:A 0.00025681
3 *1960:A 0
4 *1966:A 0
5 *1940:A 0
6 *1948:A 1.11423e-05
7 *1944:A 0.000937859
8 *1949:A 0.000170919
9 *1956:B1 7.56229e-05
10 *1947:A 0
11 *2021:X 0.00126438
12 *491:106 0.00058652
13 *491:100 0.000665799
14 *491:91 0.000805777
15 *491:35 0.000752935
16 *491:31 0.00170278
17 *491:27 0.00046593
18 *491:23 0.000294678
19 *491:16 0.000660813
20 *1944:A *1939:A 1.32552e-05
21 *1944:A *1941:A 1.39841e-05
22 *1944:A *1941:B 0.00010096
23 *1944:A *1945:B 0.000395986
24 *1944:A *1952:D 4.78395e-05
25 *1944:A *520:16 3.77949e-05
26 *1944:A *522:6 0.000394316
27 *491:16 *1947:B 0.000314909
28 *491:31 *1941:A 1.92789e-05
29 *491:31 *1948:B 3.13687e-05
30 *491:35 *1948:B 0
31 *491:35 *1953:A 9.46064e-05
32 *491:35 *1953:B 0
33 *491:35 *1967:B 0.000290271
34 *491:91 *2001:D 2.12552e-05
35 diag_busy *1962:A 0.000162735
36 *1601:A *491:16 0.000404707
37 *1601:A *491:91 4.93447e-05
38 *1954:A *1962:A 9.36295e-05
39 *1954:A *491:106 9.72829e-05
40 *1956:A1 *1949:A 2.22419e-05
41 *1956:A1 *1956:B1 5.6795e-05
42 *1956:A1 *491:35 0.000171485
43 *1956:A2 *1956:B1 2.24718e-05
44 *1962:B *1962:A 0.000319323
45 *1965:A0 *491:16 0
46 *1984:D *1962:A 0
47 *2003:D *491:31 6.78055e-06
48 *2003:D *491:35 6.54177e-05
49 *2004:D *491:16 0.000149641
50 *2008:D *1949:A 0.00017635
51 *2011:D *1944:A 5.76121e-05
52 *2021:A *491:16 1.74352e-05
53 *2025:A *491:106 0.000127939
54 *2045:A *491:35 0.00012401
55 *2056:A *491:91 0
56 *2056:A *491:100 0
57 *2058:A *491:106 0
58 *3:24 *491:91 5.5782e-05
59 *3:24 *491:100 7.49332e-05
60 *3:24 *491:106 7.65942e-05
61 *408:16 *491:35 5.59013e-05
62 *416:25 *491:16 9.99644e-06
63 *416:25 *491:35 1.31516e-05
64 *416:46 *1949:A 0.000207521
65 *416:46 *491:35 0.000188809
66 *418:81 *491:35 8.22793e-06
*RES
1 *2021:X *491:16 28.8 
2 *491:16 *1947:A 9.3 
3 *491:16 *491:23 1.76786 
4 *491:23 *491:27 3.01786 
5 *491:27 *491:31 3.42857 
6 *491:31 *491:35 17.0714 
7 *491:35 *1956:B1 15.175 
8 *491:35 *1949:A 19.0857 
9 *491:31 *1944:A 24.3714 
10 *491:27 *1948:A 9.72857 
11 *491:23 *1940:A 9.3 
12 *2021:X *491:91 22.8536 
13 *491:91 *1966:A 13.8 
14 *491:91 *491:100 2.55357 
15 *491:100 *491:106 8.07143 
16 *491:106 *1960:A 13.8 
17 *491:106 *1962:A 20.9071 
18 *491:100 *1958:A 17.3357 
*END

*D_NET *492 0.00766394
*CONN
*I *1970:B I *D sky130_fd_sc_hd__and2_2
*I *1968:B I *D sky130_fd_sc_hd__and2_2
*I *1971:B I *D sky130_fd_sc_hd__and2_2
*I *1969:B I *D sky130_fd_sc_hd__and2_2
*I *1963:B I *D sky130_fd_sc_hd__and3b_2
*I *2022:X O *D sky130_fd_sc_hd__clkdlybuf4s25_1
*CAP
1 *1970:B 0
2 *1968:B 0.000561615
3 *1971:B 0
4 *1969:B 0.00021588
5 *1963:B 0.000419829
6 *2022:X 0.000343137
7 *492:41 0.000695654
8 *492:34 0.000336276
9 *492:10 0.000714724
10 *492:8 0.000624389
11 *1968:B *1627:A 0.0001399
12 *1968:B *1675:A1 0
13 *1623:A2 *1968:B 0.000144515
14 *1627:D *1968:B 9.60875e-05
15 *1675:B2 *1968:B 5.71472e-05
16 *1963:A_N *1963:B 3.93885e-05
17 *1963:C *1963:B 5.20359e-06
18 *1963:C *1969:B 0.000102207
19 *1970:A *492:41 0.000142856
20 *1983:CLK *1963:B 0
21 *1983:CLK *492:10 0
22 *1984:D *1963:B 0.000157719
23 *1990:CLK *1969:B 0.000228937
24 *1991:D *1968:B 7.77652e-05
25 *1992:D *492:34 0.000259218
26 *2015:A *1968:B 1.66955e-05
27 *2022:A *492:8 1.20814e-05
28 *2062:A *492:8 0.000360894
29 *2070:A *1963:B 8.32242e-05
30 *2070:A *492:10 8.63951e-05
31 *2070:A *492:34 0.000160264
32 *102:10 *1968:B 0.000115587
33 *418:47 *1968:B 1.22159e-05
34 *420:12 *492:10 0
35 *420:12 *492:34 0
36 *438:46 *1968:B 9.76435e-06
37 *438:52 *1968:B 0.000186765
38 *439:8 *1969:B 0.00027257
39 *439:19 *1969:B 9.99853e-05
40 *440:8 *492:34 0.000129868
41 *440:25 *492:34 2.31791e-05
42 *441:10 *492:34 0.000347347
43 *441:19 *492:34 1.02504e-05
44 *445:23 *1968:B 0.000195547
45 *454:56 *1968:B 0.000178859
*RES
1 *2022:X *492:8 18.4429 
2 *492:8 *492:10 1.64286 
3 *492:10 *1963:B 19.8893 
4 *492:10 *1969:B 20.0857 
5 *492:8 *492:34 12.8214 
6 *492:34 *1971:B 9.3 
7 *492:34 *492:41 2.58929 
8 *492:41 *1968:B 32.2107 
9 *492:41 *1970:B 9.3 
*END

*D_NET *493 0.0123515
*CONN
*I *1967:A I *D sky130_fd_sc_hd__and2_2
*I *1939:A I *D sky130_fd_sc_hd__and2_2
*I *1945:A I *D sky130_fd_sc_hd__and2_2
*I *1941:A I *D sky130_fd_sc_hd__and2_2
*I *1946:A I *D sky130_fd_sc_hd__and2_2
*I *1973:B I *D sky130_fd_sc_hd__and2_2
*I *1972:B I *D sky130_fd_sc_hd__and2_2
*I *1942:A I *D sky130_fd_sc_hd__and2_2
*I *1938:B I *D sky130_fd_sc_hd__and2_2
*I *1951:B1 I *D sky130_fd_sc_hd__o41a_2
*I *2023:X O *D sky130_fd_sc_hd__clkdlybuf4s25_1
*CAP
1 *1967:A 0.000175657
2 *1939:A 0.000188224
3 *1945:A 0
4 *1941:A 0.000112745
5 *1946:A 5.47453e-05
6 *1973:B 0.00018946
7 *1972:B 2.13113e-05
8 *1942:A 0.000268377
9 *1938:B 0.000501722
10 *1951:B1 0
11 *2023:X 0
12 *493:116 0.000531321
13 *493:94 0.000274287
14 *493:88 0.000768107
15 *493:57 0.000342642
16 *493:46 0.0007178
17 *493:25 0.000819273
18 *493:23 0.000434525
19 *493:10 0.000632396
20 *493:4 0.000691741
21 *1938:B *1938:A 5.71472e-05
22 *1938:B *1952:A 0.000578042
23 *1939:A *1952:D 1.9021e-05
24 *1939:A *520:16 5.49818e-05
25 *1941:A *1941:B 5.33334e-05
26 *1941:A *522:6 7.77751e-05
27 *1942:A *1942:B 0.000691237
28 *1967:A *1952:D 1.92756e-05
29 *1967:A *1967:B 0.000440705
30 *1967:A *520:16 3.92854e-05
31 *493:10 *1949:B 1.99099e-05
32 *493:23 *1949:B 0.000113538
33 *493:94 *1945:B 0.000230014
34 *493:94 *522:6 4.14279e-05
35 *493:116 *1945:B 5.23057e-05
36 *493:116 *520:16 2.46553e-05
37 *1944:A *1939:A 1.32552e-05
38 *1944:A *1941:A 1.39841e-05
39 *1951:A3 *1938:B 0.00014925
40 *1951:A3 *493:46 5.5764e-05
41 *1952:B *1967:A 0.000141105
42 *1952:B *493:88 2.89016e-05
43 *1952:B *493:116 1.02504e-05
44 *1972:A *1973:B 7.25873e-06
45 *1972:A *493:57 5.4959e-05
46 *1973:A *1973:B 0.000134617
47 *1973:A *493:57 6.93704e-06
48 *1994:D *1973:B 1.24368e-05
49 *2006:D *493:88 0
50 *2006:D *493:94 0.000156903
51 *2009:D *1941:A 0.000142856
52 *2009:D *493:94 0.000232399
53 *2013:A *1942:A 8.00224e-05
54 *2038:A *1967:A 0.0001863
55 *2040:A *493:94 0.000230482
56 *2042:A *1938:B 0.000151619
57 *2044:A *493:46 0.000306351
58 *408:16 *493:10 0
59 *408:16 *493:88 0.000232973
60 *418:6 *1942:A 0.000151071
61 *418:15 *1942:A 6.6884e-05
62 *418:62 *1942:A 4.51148e-05
63 *418:62 *493:57 7.36469e-05
64 *418:67 *1938:B 3.40795e-05
65 *418:67 *493:46 5.20476e-05
66 *421:35 *493:10 1.45721e-05
67 *421:35 *493:23 0
68 *421:35 *493:88 0
69 *425:12 *1938:B 7.32955e-05
70 *425:14 *1938:B 0.000117563
71 *429:10 *1938:B 0
72 *429:14 *1938:B 0
73 *429:14 *493:10 0
74 *432:8 *1946:A 2.59355e-05
75 *432:8 *493:23 6.05161e-06
76 *443:12 *1942:A 8.63062e-05
77 *491:31 *1941:A 1.92789e-05
*RES
1 *2023:X *493:4 9.3 
2 *493:4 *493:10 8.60714 
3 *493:10 *1951:B1 13.8 
4 *493:10 *493:23 11.1786 
5 *493:23 *493:25 4.5 
6 *493:25 *1938:B 26.8 
7 *493:25 *493:46 11.3036 
8 *493:46 *1942:A 18.4786 
9 *493:46 *493:57 2.58929 
10 *493:57 *1972:B 9.72857 
11 *493:57 *1973:B 13.1393 
12 *493:23 *1946:A 10.2464 
13 *493:4 *493:88 16.9643 
14 *493:88 *493:94 6.01786 
15 *493:94 *1941:A 12.3 
16 *493:94 *1945:A 9.3 
17 *493:88 *493:116 7.66071 
18 *493:116 *1939:A 16.6036 
19 *493:116 *1967:A 19.9786 
*END

*D_NET *494 0.00577123
*CONN
*I *1977:B I *D sky130_fd_sc_hd__and2_2
*I *1978:B I *D sky130_fd_sc_hd__and2_2
*I *1976:B I *D sky130_fd_sc_hd__and2_2
*I *1979:B I *D sky130_fd_sc_hd__and2_2
*I *1974:B I *D sky130_fd_sc_hd__and2_2
*I *1975:B I *D sky130_fd_sc_hd__and2_2
*I *2024:X O *D sky130_fd_sc_hd__clkdlybuf4s25_1
*CAP
1 *1977:B 0.000195189
2 *1978:B 0
3 *1976:B 0.000291439
4 *1979:B 2.23854e-05
5 *1974:B 2.23854e-05
6 *1975:B 0.000242934
7 *2024:X 0
8 *494:47 0.000355904
9 *494:45 0.000637509
10 *494:32 0.000757746
11 *494:23 0.000575746
12 *494:4 0.00043879
13 *1976:B *1978:A 1.02504e-05
14 *494:45 *1978:A 0.000336389
15 *494:47 *1978:A 0.000166983
16 *1974:A *494:23 0.00010096
17 *1976:A *1976:B 0
18 *1976:A *494:47 0
19 *1995:D *494:23 9.90431e-05
20 *1995:D *494:32 8.76257e-05
21 *1996:D *1975:B 8.86115e-05
22 *1997:D *1976:B 9.96487e-05
23 *1999:D *494:45 0.000143044
24 *1999:D *494:47 6.74911e-05
25 *2047:A *494:45 0.00014285
26 *422:12 *494:45 0.00010326
27 *422:14 *494:45 0.000117621
28 *422:24 *494:45 4.59075e-05
29 *443:22 *494:23 3.79467e-05
30 *444:12 *1975:B 0.000314139
31 *448:14 *1976:B 0
32 *449:19 *1977:B 0.000269428
*RES
1 *2024:X *494:4 9.3 
2 *494:4 *1975:B 14.8 
3 *494:4 *494:23 12.9286 
4 *494:23 *1974:B 9.72857 
5 *494:23 *494:32 5.875 
6 *494:32 *1979:B 9.72857 
7 *494:32 *494:45 14.2321 
8 *494:45 *494:47 2.25 
9 *494:47 *1976:B 19.3179 
10 *494:47 *1978:B 13.8 
11 *494:45 *1977:B 17.6214 
*END

*D_NET *495 0.00616193
*CONN
*I *1885:B I *D sky130_fd_sc_hd__and3_2
*I *1832:B1 I *D sky130_fd_sc_hd__a22oi_2
*I *1833:D I *D sky130_fd_sc_hd__and4_2
*I *1772:B I *D sky130_fd_sc_hd__and3_2
*I *1771:A2 I *D sky130_fd_sc_hd__a21oi_2
*I *1690:B I *D sky130_fd_sc_hd__nand4_2
*I *1691:A2 I *D sky130_fd_sc_hd__a22o_4
*I *2064:X O *D sky130_fd_sc_hd__clkdlybuf4s25_1
*CAP
1 *1885:B 0.000117394
2 *1832:B1 0
3 *1833:D 5.9995e-05
4 *1772:B 0.000283274
5 *1771:A2 0
6 *1690:B 0.000432479
7 *1691:A2 0.000215806
8 *2064:X 0
9 *495:26 0.000867428
10 *495:22 0.000277593
11 *495:20 0.000546404
12 *495:18 0.000455573
13 *495:10 0.000238571
14 *495:4 0.000165066
15 *1691:A1 *1691:A2 5.51994e-05
16 *1691:B1 *1690:B 0.000485054
17 *1691:B1 *1691:A2 1.33343e-05
18 *1767:A *495:26 0.000126439
19 *1769:A *495:18 2.29964e-05
20 *1769:B *1885:B 5.33005e-05
21 *1769:B *495:10 2.2716e-05
22 *1770:A1 *495:20 0.000138015
23 *1770:A1 *495:22 8.15843e-05
24 *1770:A1 *495:26 7.8327e-05
25 *1770:A2 *495:18 1.81805e-05
26 *1770:A2 *495:20 9.56968e-05
27 *1832:A1 *495:18 5.52302e-05
28 *1832:A2 *495:18 0.000219711
29 *1835:B *1833:D 0.000139907
30 *1836:A *1885:B 1.98839e-05
31 *1885:A *495:10 0.000152333
32 *169:8 *1690:B 3.30352e-05
33 *246:8 *495:18 4.58194e-05
34 *249:12 *1772:B 1.05901e-05
35 *249:12 *495:18 2.8266e-06
36 *249:12 *495:20 7.85979e-05
37 *308:8 *495:10 0.000100823
38 *309:12 *495:18 0.000100823
39 *311:12 *1885:B 1.21258e-05
40 *439:81 *495:26 0
41 *441:46 *495:26 6.76272e-05
42 *441:61 *495:20 0
43 *474:8 *495:20 2.00751e-05
44 *474:8 *495:22 5.0725e-05
45 *474:8 *495:26 4.1331e-06
46 *474:10 *495:26 6.26559e-05
47 *474:16 *495:26 0.000124333
48 *485:80 *495:10 1.02504e-05
*RES
1 *2064:X *495:4 9.3 
2 *495:4 *495:10 10.9464 
3 *495:10 *495:18 9.05357 
4 *495:18 *495:20 5.89286 
5 *495:20 *495:22 1.94643 
6 *495:22 *495:26 11 
7 *495:26 *1691:A2 12.2107 
8 *495:26 *1690:B 15.4964 
9 *495:22 *1771:A2 13.8 
10 *495:20 *1772:B 16.8 
11 *495:18 *1833:D 15.1571 
12 *495:10 *1832:B1 9.3 
13 *495:4 *1885:B 10.6571 
*END

*D_NET *496 0.00174426
*CONN
*I *1807:A1 I *D sky130_fd_sc_hd__a21oi_2
*I *1632:A I *D sky130_fd_sc_hd__inv_2
*I *2082:X O *D sky130_fd_sc_hd__buf_2
*CAP
1 *1807:A1 0.000334571
2 *1632:A 0
3 *2082:X 0.000334688
4 *496:10 0.000669258
5 *1719:A *1807:A1 0.000123288
6 *1719:B *1807:A1 9.24395e-05
7 *1720:A *1807:A1 0
8 *1722:A *1807:A1 0
9 *1722:A *496:10 0
10 *1723:B *496:10 0
11 *2082:A *496:10 8.24959e-05
12 *113:14 *496:10 0
13 *116:8 *496:10 0
14 *196:6 *1807:A1 9.71197e-05
15 *468:8 *496:10 1.03968e-05
*RES
1 *2082:X *496:10 19.1214 
2 *496:10 *1632:A 13.8 
3 *496:10 *1807:A1 20.55 
*END

*D_NET *497 0.0126803
*CONN
*I *1609:A I *D sky130_fd_sc_hd__and4_2
*I *1603:A2 I *D sky130_fd_sc_hd__a22o_2
*I *1610:A I *D sky130_fd_sc_hd__nand4_2
*I *1622:A1 I *D sky130_fd_sc_hd__a22o_2
*I *1675:A1 I *D sky130_fd_sc_hd__a22oi_2
*I *1627:A I *D sky130_fd_sc_hd__and4_2
*I *1605:B I *D sky130_fd_sc_hd__nand4_2
*I *1698:B I *D sky130_fd_sc_hd__nand4_2
*I *1604:B I *D sky130_fd_sc_hd__and4_2
*I *1699:B2 I *D sky130_fd_sc_hd__a22o_2
*I *2065:X O *D sky130_fd_sc_hd__clkbuf_2
*CAP
1 *1609:A 4.06461e-05
2 *1603:A2 1.80494e-05
3 *1610:A 0
4 *1622:A1 0.00015495
5 *1675:A1 0.000239455
6 *1627:A 7.32295e-05
7 *1605:B 0
8 *1698:B 0
9 *1604:B 0.00068696
10 *1699:B2 0
11 *2065:X 0.0012177
12 *497:90 0.000394405
13 *497:81 0.000267776
14 *497:75 0.000607745
15 *497:71 0.000636798
16 *497:58 0.000403695
17 *497:50 0.00057415
18 *497:25 0.000625211
19 *497:14 0.00149131
20 *1604:B *1699:A2 1.3701e-05
21 *497:50 *1607:B 2.89016e-05
22 *497:50 *1696:B 0.000170646
23 *497:58 *1605:D 9.60875e-05
24 *497:71 *506:30 1.08359e-05
25 *1604:C *497:50 5.52238e-05
26 *1605:A *1603:A2 1.50923e-05
27 *1605:A *497:71 6.19181e-05
28 *1605:C *497:58 0.000136951
29 *1605:C *497:71 1.24368e-05
30 *1606:B *497:71 0
31 *1606:B *497:75 2.8266e-06
32 *1609:D *1609:A 6.05161e-06
33 *1627:B *497:81 1.02936e-05
34 *1627:D *1627:A 2.28598e-05
35 *1675:B1 *1622:A1 5.31113e-05
36 *1675:B1 *1627:A 0.000108274
37 *1675:B1 *1675:A1 0.000173083
38 *1675:B1 *497:81 5.33005e-05
39 *1675:B2 *1675:A1 0
40 *1676:B *497:81 0.000446809
41 *1683:A *497:14 2.89114e-05
42 *1696:A *497:50 0.000169405
43 *1698:A *1604:B 0.000186662
44 *1698:A *497:25 0
45 *1698:D *497:25 0
46 *1699:B1 *497:25 0.000293591
47 *1770:A1 *497:14 9.71197e-05
48 *1776:A *497:14 5.41609e-05
49 *1968:B *1627:A 0.0001399
50 *1968:B *1675:A1 0
51 *89:20 *497:75 7.6644e-05
52 *89:20 *497:81 2.93638e-05
53 *102:10 *1627:A 0.000399835
54 *102:10 *497:81 5.81579e-05
55 *103:12 *497:75 0
56 *105:10 *497:75 0
57 *106:18 *1622:A1 5.7903e-06
58 *106:18 *497:75 2.11419e-05
59 *106:29 *497:81 1.00733e-05
60 *173:8 *497:58 1.98839e-05
61 *173:8 *497:71 1.98839e-05
62 *177:10 *1604:B 1.92116e-05
63 *177:10 *497:25 0.000310492
64 *418:47 *1675:A1 7.15962e-05
65 *441:46 *497:14 5.1972e-05
66 *441:52 *497:14 2.89114e-05
67 *442:77 *497:50 5.83304e-05
68 *442:77 *497:58 0.000170787
69 *442:77 *497:75 0
70 *442:88 *497:50 0.00014209
71 *443:41 *1622:A1 7.20429e-05
72 *443:41 *497:81 0.000159135
73 *443:62 *497:71 0.000146474
74 *443:87 *497:50 2.23987e-05
75 *444:31 *497:75 0.000725052
76 *444:44 *497:50 0
77 *444:44 *497:58 0
78 *445:23 *1622:A1 0
79 *445:23 *1675:A1 0
80 *445:27 *497:25 0.00018077
*RES
1 *2065:X *497:14 33.7464 
2 *497:14 *1699:B2 9.3 
3 *497:14 *497:25 6.92857 
4 *497:25 *1604:B 14.2643 
5 *497:25 *1698:B 9.3 
6 *1604:B *497:50 22.1571 
7 *497:50 *497:58 8.94643 
8 *497:58 *1605:B 9.3 
9 *497:58 *497:71 8.23214 
10 *497:71 *497:75 14.3393 
11 *497:75 *497:81 6.32143 
12 *497:81 *1627:A 13.1214 
13 *497:81 *497:90 4.5 
14 *497:90 *1675:A1 18.55 
15 *497:90 *1622:A1 16.6571 
16 *497:75 *1610:A 9.3 
17 *497:71 *1603:A2 14.1036 
18 *497:50 *1609:A 14.3357 
*END

*D_NET *498 0.000792587
*CONN
*I *1924:A1 I *D sky130_fd_sc_hd__a21oi_2
*I *2083:X O *D sky130_fd_sc_hd__buf_2
*CAP
1 *1924:A1 0.00034724
2 *2083:X 0.00034724
3 *1924:B1 *1924:A1 0
4 *1933:B *1924:A1 0
5 *2083:A *1924:A1 7.15962e-05
6 *2084:A *1924:A1 2.65105e-05
*RES
1 *2083:X *1924:A1 32.5464 
*END

*D_NET *499 0.00076459
*CONN
*I *1924:A2 I *D sky130_fd_sc_hd__a21oi_2
*I *2084:X O *D sky130_fd_sc_hd__buf_2
*CAP
1 *1924:A2 0.000275567
2 *2084:X 0.000275567
3 *1925:A_N *1924:A2 1.74352e-05
4 *1925:B *1924:A2 0.000188586
5 *1926:A *1924:A2 7.43578e-06
6 *1928:B *1924:A2 0
*RES
1 *2084:X *1924:A2 33.0643 
*END

*D_NET *500 0.0020533
*CONN
*I *1748:B I *D sky130_fd_sc_hd__nand2b_4
*I *2085:X O *D sky130_fd_sc_hd__buf_6
*CAP
1 *1748:B 0.000402546
2 *2085:X 0.000402546
3 *1658:C *1748:B 0
4 *1747:A2 *1748:B 0.00031119
5 *1748:A_N *1748:B 0
6 *1817:A2 *1748:B 1.55885e-05
7 *2085:A *1748:B 5.33433e-05
8 *121:10 *1748:B 0
9 *468:8 *1748:B 0.000868082
*RES
1 *2085:X *1748:B 38.6179 
*END

*D_NET *501 0.00145707
*CONN
*I *1759:B I *D sky130_fd_sc_hd__nor3_2
*I *1758:A2 I *D sky130_fd_sc_hd__o21a_2
*I *2086:X O *D sky130_fd_sc_hd__buf_2
*CAP
1 *1759:B 0.000198673
2 *1758:A2 0
3 *2086:X 0.000226263
4 *501:12 0.000424937
5 *1732:B1 *501:12 0
6 *1734:B *501:12 2.84398e-05
7 *1735:A *501:12 2.58937e-05
8 *1759:A *1759:B 0.000271791
9 *2086:A *501:12 6.14094e-05
10 *125:19 *501:12 6.05161e-06
11 *208:10 *501:12 0
12 *208:34 *1759:B 3.57366e-05
13 *211:8 *1759:B 9.71197e-05
14 *235:10 *1759:B 8.07526e-05
*RES
1 *2086:X *501:12 21.3 
2 *501:12 *1758:A2 9.3 
3 *501:12 *1759:B 13.9786 
*END

*D_NET *502 0.00169931
*CONN
*I *1818:B I *D sky130_fd_sc_hd__xor2_2
*I *2087:X O *D sky130_fd_sc_hd__buf_6
*CAP
1 *1818:B 0.000511879
2 *2087:X 0.000511879
3 *1813:A *1818:B 1.56e-05
4 *1813:B *1818:B 9.80173e-05
5 *1816:A *1818:B 0.0001098
6 *1818:A *1818:B 0
7 *2087:A *1818:B 4.58976e-05
8 *294:12 *1818:B 4.18853e-05
9 *340:14 *1818:B 0.000364354
*RES
1 *2087:X *1818:B 29.2643 
*END

*D_NET *503 0.00025348
*CONN
*I *1907:B I *D sky130_fd_sc_hd__xnor2_2
*I *2088:X O *D sky130_fd_sc_hd__buf_6
*CAP
1 *1907:B 9.27105e-05
2 *2088:X 9.27105e-05
3 *1927:A1 *1907:B 6.80593e-05
*RES
1 *2088:X *1907:B 29.85 
*END

*D_NET *504 0.000547419
*CONN
*I *1923:B I *D sky130_fd_sc_hd__xor2_2
*I *2089:X O *D sky130_fd_sc_hd__buf_2
*CAP
1 *1923:B 0.000183905
2 *2089:X 0.000183905
3 *1923:A *1923:B 0.000169572
4 *1932:B *1923:B 1.00375e-05
*RES
1 *2089:X *1923:B 22.675 
*END

*D_NET *505 0.000604314
*CONN
*I *1751:A2 I *D sky130_fd_sc_hd__o21ai_4
*I *2090:X O *D sky130_fd_sc_hd__buf_2
*CAP
1 *1751:A2 0.000209905
2 *2090:X 0.000209905
3 *228:8 *1751:A2 0.000184503
*RES
1 *2090:X *1751:A2 22.8679 
*END

*D_NET *506 0.0157209
*CONN
*I *1781:B I *D sky130_fd_sc_hd__and4_2
*I *1697:A I *D sky130_fd_sc_hd__nand2_2
*I *1698:C I *D sky130_fd_sc_hd__nand4_2
*I *1699:A2 I *D sky130_fd_sc_hd__a22o_2
*I *1604:D I *D sky130_fd_sc_hd__and4_2
*I *1609:C I *D sky130_fd_sc_hd__and4_2
*I *1605:D I *D sky130_fd_sc_hd__nand4_2
*I *1603:B2 I *D sky130_fd_sc_hd__a22o_2
*I *1610:C I *D sky130_fd_sc_hd__nand4_2
*I *1622:B1 I *D sky130_fd_sc_hd__a22o_2
*I *2066:X O *D sky130_fd_sc_hd__clkbuf_2
*CAP
1 *1781:B 0
2 *1697:A 0.00023101
3 *1698:C 0
4 *1699:A2 0.000131553
5 *1604:D 0.00014707
6 *1609:C 3.92213e-05
7 *1605:D 6.38286e-05
8 *1603:B2 0
9 *1610:C 7.02631e-05
10 *1622:B1 0.000202271
11 *2066:X 0.000761754
12 *506:118 0.000278325
13 *506:96 0.000131553
14 *506:36 0.00050278
15 *506:30 0.000316048
16 *506:24 0.00025637
17 *506:22 0.000286004
18 *506:20 0.000921454
19 *506:12 0.00092139
20 *506:10 0.00109612
21 *1604:D *1607:B 8.49024e-05
22 *1697:A *1781:C 5.52302e-05
23 *1697:A *512:68 4.43157e-05
24 *506:10 *1781:C 4.97121e-06
25 *506:10 *512:16 0.00151179
26 *506:20 *1696:B 4.58194e-05
27 *506:22 *1607:B 0.000272665
28 *1604:B *1699:A2 1.3701e-05
29 *1604:C *1604:D 9.41642e-05
30 *1605:C *1605:D 3.4855e-05
31 *1609:D *1609:C 5.52302e-05
32 *1610:D *1610:C 1.43e-05
33 *1622:A2 *1622:B1 3.046e-05
34 *1622:B2 *1622:B1 0.00022459
35 *1624:A *506:36 0.00017309
36 *1698:D *1699:A2 1.59793e-05
37 *1699:A1 *1699:A2 7.54606e-05
38 *1699:B1 *1699:A2 0.00014171
39 *1783:A1 *506:10 0.000184626
40 *1783:A1 *506:12 5.99125e-05
41 *1783:A2 *506:10 9.25014e-06
42 *1888:A2 *506:10 0.000186471
43 *1888:C1 *506:10 0.000141729
44 *84:10 *1605:D 0
45 *86:10 *506:22 0
46 *173:8 *1605:D 0.000183713
47 *258:10 *1697:A 5.71472e-05
48 *313:6 *506:10 5.33334e-05
49 *442:32 *1610:C 5.38148e-05
50 *442:32 *506:36 9.87983e-06
51 *442:36 *1622:B1 5.33005e-05
52 *442:49 *1610:C 1.71615e-05
53 *442:49 *1622:B1 2.04825e-05
54 *442:77 *506:24 0.000164625
55 *442:77 *506:30 0.000144038
56 *442:77 *506:36 0.000434939
57 *443:41 *1622:B1 6.8646e-06
58 *443:58 *1622:B1 0.000128496
59 *443:58 *506:30 5.33005e-05
60 *443:58 *506:36 0.000659932
61 *443:62 *506:24 7.83659e-05
62 *443:62 *506:30 0.000121573
63 *443:81 *506:24 0.000167691
64 *443:87 *1604:D 6.73939e-05
65 *443:87 *506:22 0.000377181
66 *443:87 *506:24 5.59013e-05
67 *444:52 *506:20 0.000518075
68 *444:67 *506:12 0.000939315
69 *444:67 *506:20 3.34366e-05
70 *444:76 *506:10 0.000359561
71 *444:76 *506:12 0.000109826
72 *445:23 *506:12 1.76039e-05
73 *445:23 *506:20 6.42338e-05
74 *445:27 *1699:A2 4.13496e-05
75 *445:51 *506:12 0.00046351
76 *445:58 *1697:A 0.000272371
77 *445:73 *1697:A 5.33005e-05
78 *497:58 *1605:D 9.60875e-05
79 *497:71 *506:30 1.08359e-05
*RES
1 *2066:X *506:10 35.8536 
2 *506:10 *506:12 13.1786 
3 *506:12 *506:20 18.1607 
4 *506:20 *506:22 4.98214 
5 *506:22 *506:24 3.76786 
6 *506:24 *506:30 6.98214 
7 *506:30 *506:36 13.5089 
8 *506:36 *1622:B1 17.9161 
9 *506:36 *1610:C 15.2911 
10 *506:30 *1603:B2 9.3 
11 *506:24 *1605:D 15.9964 
12 *506:22 *1609:C 14.3357 
13 *506:20 *1604:D 16.1929 
14 *506:12 *506:96 4.5 
15 *506:96 *1699:A2 12.6393 
16 *506:96 *1698:C 9.3 
17 *506:10 *506:118 5.03571 
18 *506:118 *1697:A 14.3893 
19 *506:118 *1781:B 9.3 
*END

*D_NET *507 0.000267331
*CONN
*I *1870:B I *D sky130_fd_sc_hd__xor2_2
*I *2091:X O *D sky130_fd_sc_hd__buf_6
*CAP
1 *1870:B 0.000133665
2 *2091:X 0.000133665
*RES
1 *2091:X *1870:B 11.4339 
*END

*D_NET *508 0.000321897
*CONN
*I *1708:B I *D sky130_fd_sc_hd__nand3_2
*I *2092:X O *D sky130_fd_sc_hd__buf_2
*CAP
1 *1708:B 0.000160949
2 *2092:X 0.000160949
*RES
1 *2092:X *1708:B 21.1 
*END

*D_NET *509 0.000333396
*CONN
*I *1690:D I *D sky130_fd_sc_hd__nand4_2
*I *2093:X O *D sky130_fd_sc_hd__buf_2
*CAP
1 *1690:D 0.000136224
2 *2093:X 0.000136224
3 *1776:A *1690:D 5.51406e-05
4 *166:8 *1690:D 5.80706e-06
5 *439:81 *1690:D 0
*RES
1 *2093:X *1690:D 29.7786 
*END

*D_NET *510 0.000471969
*CONN
*I *1881:A2 I *D sky130_fd_sc_hd__a21oi_2
*I *2094:X O *D sky130_fd_sc_hd__buf_2
*CAP
1 *1881:A2 0.000157879
2 *2094:X 0.000157879
3 *1842:B *1881:A2 2.95726e-05
4 *2094:A *1881:A2 0.000126639
*RES
1 *2094:X *1881:A2 22.0286 
*END

*D_NET *511 0.00219716
*CONN
*I *1745:A2 I *D sky130_fd_sc_hd__o21ai_2
*I *2095:X O *D sky130_fd_sc_hd__buf_2
*CAP
1 *1745:A2 0.000638287
2 *2095:X 0.000638287
3 *1746:C1 *1745:A2 0.000354098
4 *1817:B1 *1745:A2 0.000109604
5 *223:6 *1745:A2 5.52238e-05
6 *294:12 *1745:A2 0.000106516
7 *340:14 *1745:A2 0.000295144
*RES
1 *2095:X *1745:A2 40.85 
*END

*D_NET *512 0.011357
*CONN
*I *1700:A2 I *D sky130_fd_sc_hd__a22o_2
*I *1701:B I *D sky130_fd_sc_hd__nand4_2
*I *1607:B I *D sky130_fd_sc_hd__and2_2
*I *1823:A1 I *D sky130_fd_sc_hd__a22o_2
*I *1782:B I *D sky130_fd_sc_hd__nand2_2
*I *1781:C I *D sky130_fd_sc_hd__and4_2
*I *2067:X O *D sky130_fd_sc_hd__dlymetal6s2s_1
*CAP
1 *1700:A2 6.87075e-05
2 *1701:B 0
3 *1607:B 0.000495645
4 *1823:A1 0.000102089
5 *1782:B 0.00011644
6 *1781:C 0.000646764
7 *2067:X 0.00140934
8 *512:70 0.000600179
9 *512:68 0.000665016
10 *512:33 0.000354501
11 *512:16 0.00170031
12 *1607:B *1696:B 7.25392e-05
13 *512:68 *1696:B 0.000231012
14 *512:68 *514:14 0.00015134
15 *1604:C *1607:B 2.42516e-05
16 *1604:D *1607:B 8.49024e-05
17 *1697:A *1781:C 5.52302e-05
18 *1697:A *512:68 4.43157e-05
19 *1700:B2 *1607:B 0
20 *1700:B2 *512:68 0
21 *1700:B2 *512:70 0
22 *1703:A2 *512:68 9.25014e-06
23 *1703:A2 *512:70 0.000117903
24 *1783:A1 *1781:C 0.000344917
25 *1783:A1 *512:68 0.000356028
26 *1783:A2 *1781:C 1.76039e-05
27 *1783:A2 *1823:A1 5.58941e-05
28 *1783:A2 *512:33 4.66203e-05
29 *1783:B1 *1781:C 0.000219193
30 *1784:A *512:68 0
31 *1785:A *512:68 1.3142e-05
32 *1788:A1 *1607:B 0
33 *1823:B2 *1823:A1 0.000227021
34 *1824:A *1823:A1 1.02504e-05
35 *1825:A2 *1823:A1 8.89385e-05
36 *1825:B1 *1823:A1 1.00375e-05
37 *1834:A *512:16 0.000134758
38 *1837:A *512:16 5.58941e-05
39 *1837:B *512:16 9.57064e-05
40 *176:8 *1607:B 0
41 *177:10 *1607:B 0
42 *178:8 *1700:A2 5.33334e-05
43 *179:22 *1607:B 3.51442e-05
44 *179:22 *512:70 5.7616e-05
45 *256:14 *1700:A2 2.50158e-05
46 *258:10 *1781:C 0.000125724
47 *259:6 *1782:B 1.24368e-05
48 *259:6 *512:33 5.33005e-05
49 *259:34 *512:33 8.46829e-05
50 *262:8 *512:68 0
51 *309:18 *512:16 5.90443e-06
52 *443:87 *1607:B 1.08359e-05
53 *443:112 *1607:B 7.61882e-05
54 *444:76 *1823:A1 5.7616e-05
55 *445:58 *512:68 0.000272371
56 *445:73 *1781:C 0
57 *445:73 *1823:A1 0
58 *445:73 *512:33 0
59 *445:73 *512:68 4.27935e-05
60 *497:50 *1607:B 2.89016e-05
61 *506:10 *1781:C 4.97121e-06
62 *506:10 *512:16 0.00151179
63 *506:22 *1607:B 0.000272665
*RES
1 *2067:X *512:16 44.6929 
2 *512:16 *1781:C 19.3179 
3 *512:16 *512:33 7.19643 
4 *512:33 *1782:B 11.0857 
5 *512:33 *1823:A1 22.1929 
6 *1781:C *512:68 26.6929 
7 *512:68 *512:70 2.25 
8 *512:70 *1607:B 32.8179 
9 *512:70 *1701:B 13.8 
10 *512:68 *1700:A2 15.3357 
*END

*D_NET *513 0.0024678
*CONN
*I *1623:B1 I *D sky130_fd_sc_hd__a22o_2
*I *1612:C I *D sky130_fd_sc_hd__nand4_2
*I *1613:B2 I *D sky130_fd_sc_hd__a22oi_2
*I *2096:X O *D sky130_fd_sc_hd__buf_2
*CAP
1 *1623:B1 7.65805e-05
2 *1612:C 0
3 *1613:B2 9.58911e-06
4 *2096:X 0.000245889
5 *513:23 0.000204538
6 *513:10 0.000383436
7 *1612:B *1623:B1 1.98839e-05
8 *1612:B *513:23 1.3701e-05
9 *1612:D *513:23 0.000141734
10 *1613:B1 *513:23 1.3701e-05
11 *1615:A *513:10 0.000153047
12 *93:19 *513:10 0
13 *438:67 *513:10 0
14 *439:32 *1623:B1 0.000148189
15 *439:34 *1613:B2 2.28499e-05
16 *439:34 *513:23 0.000574005
17 *439:40 *513:10 0
18 *439:49 *513:10 0
19 *440:25 *513:10 0
20 *441:19 *513:10 0
21 *454:43 *1613:B2 5.71472e-05
22 *454:43 *1623:B1 5.33005e-05
23 *454:43 *513:23 0.000224484
24 *454:49 *1623:B1 0.000125724
*RES
1 *2096:X *513:10 22.675 
2 *513:10 *1613:B2 9.83571 
3 *513:10 *513:23 6.32143 
4 *513:23 *1612:C 9.3 
5 *513:23 *1623:B1 20.7821 
*END

*D_NET *514 0.00889087
*CONN
*I *1824:B I *D sky130_fd_sc_hd__nand2_2
*I *1823:B1 I *D sky130_fd_sc_hd__a22o_2
*I *1879:B I *D sky130_fd_sc_hd__and3_2
*I *1696:B I *D sky130_fd_sc_hd__nand2_2
*I *1784:B I *D sky130_fd_sc_hd__nand2_2
*I *2068:X O *D sky130_fd_sc_hd__clkdlybuf4s25_1
*CAP
1 *1824:B 0.000221004
2 *1823:B1 0.000123799
3 *1879:B 0
4 *1696:B 0.000594411
5 *1784:B 0.000250984
6 *2068:X 0.000769936
7 *514:51 0.000521854
8 *514:42 0.000254528
9 *514:14 0.00115902
10 *514:10 0.00116104
11 *1607:B *1696:B 7.25392e-05
12 *1696:A *1696:B 9.60875e-05
13 *1702:B *1696:B 7.38652e-05
14 *1703:A2 *1696:B 0.000128154
15 *1785:A *514:14 0.000342502
16 *1785:B *1784:B 9.90431e-05
17 *1786:B *514:14 0
18 *1824:A *1823:B1 3.7457e-05
19 *1825:A2 *1824:B 0.000171375
20 *1827:B *514:10 8.32242e-05
21 *1827:B *514:14 0.000117896
22 *1880:B *1824:B 0
23 *1880:B *514:10 0.00012401
24 *1882:B *514:10 3.69047e-06
25 *1911:A1 *1824:B 0
26 *1911:B1 *1824:B 5.33005e-05
27 *1915:B *1823:B1 4.13595e-05
28 *1915:B *514:42 2.15245e-05
29 *1915:B *514:51 0.000225141
30 *2068:A *514:10 2.27416e-05
31 *83:12 *1696:B 0.00017309
32 *179:22 *1696:B 8.07879e-05
33 *257:10 *1696:B 0
34 *259:34 *514:10 5.39648e-05
35 *259:34 *514:14 5.33786e-05
36 *260:10 *514:14 0.000150618
37 *261:6 *1784:B 5.52238e-05
38 *262:8 *1696:B 0
39 *302:10 *514:14 0.000369825
40 *303:12 *514:10 5.21676e-05
41 *366:12 *1824:B 4.51495e-05
42 *443:87 *1696:B 0.000146474
43 *443:112 *1696:B 5.20352e-05
44 *445:73 *514:14 0.00010273
45 *445:87 *1823:B1 5.86305e-05
46 *445:87 *1824:B 2.84494e-05
47 *445:87 *514:51 9.90431e-05
48 *497:50 *1696:B 0.000170646
49 *506:20 *1696:B 4.58194e-05
50 *512:68 *1696:B 0.000231012
51 *512:68 *514:14 0.00015134
*RES
1 *2068:X *514:10 25.0679 
2 *514:10 *514:14 15.5536 
3 *514:14 *1784:B 13.4429 
4 *514:14 *1696:B 33.175 
5 *514:10 *514:42 5.44643 
6 *514:42 *1879:B 9.3 
7 *514:42 *514:51 4.14286 
8 *514:51 *1823:B1 11.4964 
9 *514:51 *1824:B 22.7464 
*END

*D_NET *515 0.0074106
*CONN
*I *1967:B I *D sky130_fd_sc_hd__and2_2
*I *1950:B1 I *D sky130_fd_sc_hd__a211o_2
*I *2034:X O *D sky130_fd_sc_hd__dlygate4sd3_1
*CAP
1 *1967:B 0.00119356
2 *1950:B1 0.00131722
3 *2034:X 0
4 *515:4 0.00251078
5 *1950:B1 *2001:D 5.24274e-05
6 *1967:B *1953:A 0.00011061
7 *1602:A *1950:B1 0
8 *1943:B *1950:B1 2.89016e-05
9 *1950:A1 *1950:B1 9.54798e-06
10 *1950:C1 *1950:B1 0.000106544
11 *1965:A0 *1950:B1 0
12 *1967:A *1967:B 0.000440705
13 *2007:CLK *1950:B1 3.72932e-05
14 *2007:D *1950:B1 0.000354598
15 *2009:D *1967:B 1.64343e-05
16 *2014:A *1950:B1 2.6425e-05
17 *2035:A *1950:B1 3.34197e-05
18 *2039:A *1950:B1 2.75742e-05
19 *2045:A *1967:B 5.52302e-05
20 *3:24 *1950:B1 0
21 *416:25 *1967:B 7.6644e-05
22 *418:81 *1950:B1 6.62761e-06
23 *418:81 *1967:B 1.72894e-05
24 *419:8 *1950:B1 0.000613605
25 *419:24 *1950:B1 2.00751e-05
26 *419:33 *1950:B1 4.84667e-05
27 *472:10 *1950:B1 1.63453e-05
28 *491:35 *1967:B 0.000290271
*RES
1 *2034:X *515:4 9.3 
2 *515:4 *1950:B1 38.9071 
3 *515:4 *1967:B 38.7643 
*END

*D_NET *516 0.00060444
*CONN
*I *2001:D I *D sky130_fd_sc_hd__dfxtp_2
*I *2035:X O *D sky130_fd_sc_hd__dlygate4sd3_1
*CAP
1 *2001:D 0.000146534
2 *2035:X 0.000146534
3 *1601:A *2001:D 8.33504e-05
4 *1950:B1 *2001:D 5.24274e-05
5 *419:24 *2001:D 0.000154339
6 *491:91 *2001:D 2.12552e-05
*RES
1 *2035:X *2001:D 30.6938 
*END

*D_NET *517 0.00375283
*CONN
*I *1938:A I *D sky130_fd_sc_hd__and2_2
*I *1952:A I *D sky130_fd_sc_hd__or4_2
*I *2036:X O *D sky130_fd_sc_hd__dlygate4sd3_1
*CAP
1 *1938:A 1.8141e-05
2 *1952:A 0.000885946
3 *2036:X 0.000904087
4 *1952:A *1939:B 0.000522593
5 *1952:A *1952:D 0.000714606
6 *1938:B *1938:A 5.71472e-05
7 *1938:B *1952:A 0.000578042
8 *2007:D *1952:A 7.22717e-05
9 *2036:A *1952:A 0
*RES
1 *2036:X *1952:A 49.9523 
2 *2036:X *1938:A 19.1357 
*END

*D_NET *518 0.00227407
*CONN
*I *1955:A I *D sky130_fd_sc_hd__or2_2
*I *1940:B I *D sky130_fd_sc_hd__and2_2
*I *2037:X O *D sky130_fd_sc_hd__dlygate4sd3_1
*CAP
1 *1955:A 0.000524398
2 *1940:B 0.000366762
3 *2037:X 0
4 *518:6 0.00089116
5 *1940:B *1947:B 0
6 *1940:B *1948:B 0
7 *2010:D *1940:B 0.000126483
8 *409:38 *1955:A 0.000365268
*RES
1 *2037:X *518:6 13.8 
2 *518:6 *1940:B 20.3536 
3 *518:6 *1955:A 23.4964 
*END

*D_NET *519 0.00945789
*CONN
*I *1666:A1 I *D sky130_fd_sc_hd__a22o_2
*I *1678:A I *D sky130_fd_sc_hd__and3_2
*I *1654:A I *D sky130_fd_sc_hd__nand4_2
*I *1934:A1 I *D sky130_fd_sc_hd__a21oi_2
*I *1648:A2 I *D sky130_fd_sc_hd__a22o_2
*I *1653:A I *D sky130_fd_sc_hd__and4_2
*I *1730:A I *D sky130_fd_sc_hd__and3_2
*I *1646:A I *D sky130_fd_sc_hd__and3_2
*I *1731:A1 I *D sky130_fd_sc_hd__a21oi_2
*I *2069:X O *D sky130_fd_sc_hd__clkdlybuf4s25_1
*CAP
1 *1666:A1 5.95634e-05
2 *1678:A 0.000162765
3 *1654:A 0.000265437
4 *1934:A1 0.000184902
5 *1648:A2 0.000192273
6 *1653:A 0.000259722
7 *1730:A 0
8 *1646:A 0.000272193
9 *1731:A1 8.31305e-05
10 *2069:X 0.000149229
11 *519:95 0.000524445
12 *519:91 0.000193915
13 *519:76 0.000223009
14 *519:40 0.000304947
15 *519:38 0.000444312
16 *519:12 0.000355324
17 *519:10 0.000356043
18 *1648:A1 *1648:A2 0.000121573
19 *1648:A1 *519:38 3.67548e-05
20 *1648:B1 *1648:A2 1.24368e-05
21 *1654:C *1654:A 5.52238e-05
22 *1654:C *519:95 0
23 *1654:D *1654:A 5.52302e-05
24 *1666:A2 *1666:A1 7.92198e-05
25 *1666:B1 *1666:A1 5.50052e-05
26 *1666:B2 *1666:A1 0.000173871
27 *1666:B2 *519:91 5.50052e-05
28 *1678:B *1678:A 0
29 *1731:B1 *1731:A1 0.000188586
30 *1732:B2 *519:10 0
31 *1737:A *1648:A2 8.1852e-05
32 *2049:A *519:10 5.26184e-05
33 *2049:A *519:38 4.038e-06
34 *2072:A *1646:A 0.000126446
35 *2072:A *1648:A2 2.39876e-05
36 *2072:A *519:10 2.8266e-06
37 *2072:A *519:38 0.000108824
38 *2072:A *519:95 0.000173804
39 *132:6 *1666:A1 1.62025e-05
40 *133:14 *1654:A 3.93247e-05
41 *145:12 *1678:A 0
42 *158:10 *1678:A 5.52238e-05
43 *209:6 *1646:A 6.79057e-05
44 *209:6 *1731:A1 0.000114655
45 *215:6 *1648:A2 4.08484e-05
46 *383:10 *1678:A 0
47 *383:10 *1934:A1 7.27028e-05
48 *446:38 *1934:A1 0.000490251
49 *446:38 *519:91 0.000172173
50 *447:35 *1653:A 0.00073755
51 *447:37 *1653:A 0.000121573
52 *447:37 *519:38 8.99641e-05
53 *447:43 *1731:A1 0.000317082
54 *447:43 *519:38 0.000104246
55 *447:113 *1653:A 3.14003e-05
56 *447:113 *1666:A1 0.000271352
57 *447:113 *1934:A1 5.52302e-05
58 *447:113 *519:91 0.000227526
59 *450:10 *1934:A1 1.31516e-05
60 *455:49 *1648:A2 3.34366e-05
61 *455:49 *1653:A 0.000738856
62 *455:60 *1666:A1 2.20552e-05
63 *465:61 *1646:A 0.000186669
64 *465:63 *1646:A 0
*RES
1 *2069:X *519:10 16.2821 
2 *519:10 *519:12 4.5 
3 *519:12 *1731:A1 13.1214 
4 *519:12 *1646:A 23.9071 
5 *519:10 *519:38 5.28571 
6 *519:38 *519:40 0.535714 
7 *519:40 *1730:A 13.8 
8 *519:40 *1653:A 25.1571 
9 *519:38 *1648:A2 17.983 
10 *1653:A *519:76 9.3 
11 *519:76 *1934:A1 23.8536 
12 *519:76 *519:91 2.17857 
13 *519:91 *519:95 6.75 
14 *519:95 *1654:A 18.4607 
15 *519:95 *1678:A 16.5857 
16 *519:91 *1666:A1 12.7286 
*END

*D_NET *520 0.0018763
*CONN
*I *1952:C I *D sky130_fd_sc_hd__or4_2
*I *1945:B I *D sky130_fd_sc_hd__and2_2
*I *2038:X O *D sky130_fd_sc_hd__dlygate4sd3_1
*CAP
1 *1952:C 7.18532e-07
2 *1945:B 0.000134922
3 *2038:X 9.32673e-05
4 *520:16 0.000228908
5 *1945:B *1952:D 1.11786e-05
6 *1945:B *522:6 0.000188586
7 *520:16 *1952:D 0.000151298
8 *1939:A *520:16 5.49818e-05
9 *1944:A *1945:B 0.000395986
10 *1944:A *520:16 3.77949e-05
11 *1967:A *520:16 3.92854e-05
12 *2040:A *1945:B 0.000232399
13 *493:94 *1945:B 0.000230014
14 *493:116 *1945:B 5.23057e-05
15 *493:116 *520:16 2.46553e-05
*RES
1 *2038:X *520:16 21.4696 
2 *520:16 *1945:B 16.9518 
3 *520:16 *1952:C 9.45179 
*END

*D_NET *521 0.00292877
*CONN
*I *1955:B I *D sky130_fd_sc_hd__or2_2
*I *1947:B I *D sky130_fd_sc_hd__and2_2
*I *2039:X O *D sky130_fd_sc_hd__dlygate4sd3_1
*CAP
1 *1955:B 0.000457018
2 *1947:B 0.000498873
3 *2039:X 0.000132524
4 *521:8 0.00108842
5 *1940:B *1947:B 0
6 *1958:B *1955:B 0
7 *1965:S *521:8 6.61256e-05
8 *2026:A *1955:B 0.000325163
9 *2039:A *1947:B 2.56694e-05
10 *2039:A *1955:B 2.00751e-05
11 *491:16 *1947:B 0.000314909
*RES
1 *2039:X *521:8 15.5679 
2 *521:8 *1947:B 23.0321 
3 *521:8 *1955:B 22.4964 
*END

*D_NET *522 0.0025856
*CONN
*I *1953:A I *D sky130_fd_sc_hd__nor3_2
*I *1941:B I *D sky130_fd_sc_hd__and2_2
*I *2040:X O *D sky130_fd_sc_hd__dlygate4sd3_1
*CAP
1 *1953:A 0.000393949
2 *1941:B 3.96588e-05
3 *2040:X 5.31532e-05
4 *522:6 0.000486761
5 *1941:A *1941:B 5.33334e-05
6 *1941:A *522:6 7.77751e-05
7 *1944:A *1941:B 0.00010096
8 *1944:A *522:6 0.000394316
9 *1945:B *522:6 0.000188586
10 *1967:B *1953:A 0.00011061
11 *2009:CLK *1953:A 0
12 *2009:D *1953:A 0
13 *2034:A *1953:A 0.000227021
14 *416:25 *1953:A 0.000101545
15 *416:46 *1953:A 0.0002219
16 *421:35 *1953:A 0
17 *491:35 *1953:A 9.46064e-05
18 *493:94 *522:6 4.14279e-05
*RES
1 *2040:X *522:6 13.1214 
2 *522:6 *1941:B 10.675 
3 *522:6 *1953:A 28.4429 
*END

*D_NET *523 0.00357992
*CONN
*I *1942:B I *D sky130_fd_sc_hd__and2_2
*I *1951:A2 I *D sky130_fd_sc_hd__o41a_2
*I *2041:X O *D sky130_fd_sc_hd__dlygate4sd3_1
*CAP
1 *1942:B 0.000484972
2 *1951:A2 0.000336507
3 *2041:X 0.000187283
4 *523:10 0.00100876
5 *1951:A2 *1949:B 0.000596351
6 *1942:A *1942:B 0.000691237
7 *2013:A *1942:B 1.06409e-05
8 *2028:A *523:10 1.58163e-05
9 *2041:A *523:10 0
10 *3:46 *1942:B 1.01342e-06
11 *418:15 *523:10 0
12 *418:67 *523:10 0
13 *429:10 *1951:A2 0.000164883
14 *429:14 *1951:A2 5.80706e-06
15 *443:22 *523:10 7.6644e-05
*RES
1 *2041:X *523:10 16.8893 
2 *523:10 *1951:A2 23.0321 
3 *523:10 *1942:B 21.2018 
*END

*D_NET *524 0.00127459
*CONN
*I *1980:D I *D sky130_fd_sc_hd__dfxtp_2
*I *2042:X O *D sky130_fd_sc_hd__dlygate4sd3_1
*CAP
1 *1980:D 0.000444998
2 *2042:X 0.000444998
3 *1980:D *526:10 0.000121347
4 *2005:CLK *1980:D 0.000119116
5 *2044:A *1980:D 9.67754e-05
6 *421:54 *1980:D 4.73603e-05
*RES
1 *2042:X *1980:D 35.8679 
*END

*D_NET *525 0.00288431
*CONN
*I *1949:B I *D sky130_fd_sc_hd__and2_2
*I *2043:X O *D sky130_fd_sc_hd__dlygate4sd3_1
*CAP
1 *1949:B 0.000699355
2 *2043:X 0.000699355
3 *1951:A2 *1949:B 0.000596351
4 *2027:A *1949:B 0.000208837
5 *408:16 *1949:B 0.000271345
6 *421:54 *1949:B 9.68428e-05
7 *425:14 *1949:B 0.000170964
8 *429:14 *1949:B 7.80714e-06
9 *493:10 *1949:B 1.99099e-05
10 *493:23 *1949:B 0.000113538
*RES
1 *2043:X *1949:B 45.725 
*END

*D_NET *526 0.00329836
*CONN
*I *1946:B I *D sky130_fd_sc_hd__and2_2
*I *1952:D I *D sky130_fd_sc_hd__or4_2
*I *2044:X O *D sky130_fd_sc_hd__dlygate4sd3_1
*CAP
1 *1946:B 3.68446e-05
2 *1952:D 0.000518479
3 *2044:X 0.000222099
4 *526:10 0.000777422
5 *1939:A *1952:D 1.9021e-05
6 *1944:A *1952:D 4.78395e-05
7 *1945:B *1952:D 1.11786e-05
8 *1952:A *1952:D 0.000714606
9 *1952:B *1952:D 0
10 *1967:A *1952:D 1.92756e-05
11 *1980:D *526:10 0.000121347
12 *2005:CLK *526:10 0.000183711
13 *2005:D *526:10 0.000103437
14 *2036:A *1952:D 0
15 *408:16 *1952:D 0
16 *418:67 *1952:D 0.000188534
17 *418:67 *526:10 0.000173079
18 *418:81 *1952:D 1.01912e-05
19 *425:12 *1952:D 0
20 *520:16 *1952:D 0.000151298
*RES
1 *2044:X *526:10 20.3536 
2 *526:10 *1952:D 27.3357 
3 *526:10 *1946:B 14.3357 
*END

*D_NET *527 0.00264177
*CONN
*I *1953:B I *D sky130_fd_sc_hd__nor3_2
*I *1948:B I *D sky130_fd_sc_hd__and2_2
*I *2045:X O *D sky130_fd_sc_hd__dlygate4sd3_1
*CAP
1 *1953:B 0.00026369
2 *1948:B 0.000327997
3 *2045:X 0.000181933
4 *527:8 0.00077362
5 *1940:B *1948:B 0
6 *1964:C *1953:B 9.46929e-05
7 *2003:D *1948:B 0.000272175
8 *2010:D *1948:B 0
9 *2045:A *1948:B 7.79781e-06
10 *408:16 *1953:B 6.29917e-05
11 *409:8 *1953:B 9.90431e-05
12 *416:25 *527:8 0.000269801
13 *418:81 *1953:B 1.05524e-05
14 *419:10 *1948:B 2.41972e-05
15 *419:10 *1953:B 4.01319e-05
16 *419:16 *1948:B 8.6332e-05
17 *419:91 *1953:B 9.54453e-05
18 *491:31 *1948:B 3.13687e-05
19 *491:35 *1948:B 0
20 *491:35 *1953:B 0
*RES
1 *2045:X *527:8 16.3893 
2 *527:8 *1948:B 20.8893 
3 *527:8 *1953:B 19.7643 
*END

*D_NET *528 0.00153581
*CONN
*I *1939:B I *D sky130_fd_sc_hd__and2_2
*I *2046:X O *D sky130_fd_sc_hd__dlygate4sd3_1
*CAP
1 *1939:B 0.000506609
2 *2046:X 0.000506609
3 *1944:B *1939:B 0
4 *1952:A *1939:B 0.000522593
5 *2007:D *1939:B 0
6 *2036:A *1939:B 0
7 *421:12 *1939:B 0
*RES
1 *2046:X *1939:B 36.5821 
*END

*D_NET *529 0.00111017
*CONN
*I *1978:A I *D sky130_fd_sc_hd__and2_2
*I *2047:X O *D sky130_fd_sc_hd__dlygate4sd3_1
*CAP
1 *1978:A 0.000221749
2 *2047:X 0.000221749
3 *1976:B *1978:A 1.02504e-05
4 *2032:A *1978:A 0.000153054
5 *2047:A *1978:A 0
6 *448:14 *1978:A 0
7 *494:45 *1978:A 0.000336389
8 *494:47 *1978:A 0.000166983
*RES
1 *2047:X *1978:A 34.1 
*END
