*SPEF "ieee 1481-1999"
*DESIGN "self_diagnosing_fir"
*DATE "23:06:15 Friday September 18, 2026"
*VENDOR "The OpenROAD Project"
*PROGRAM "OpenROAD"
*VERSION "dcf36133a369abc8f3c5e5738cd4d82e4903c0e0"
*DESIGN_FLOW "NAME_SCOPE LOCAL" "PIN_CAP NONE"
*DIVIDER /
*DELIMITER :
*BUS_DELIMITER []
*T_UNIT 1 NS
*C_UNIT 1 PF
*R_UNIT 1 OHM
*L_UNIT 1 HENRY

*NAME_MAP
*3 clk
*4 diag_busy
*5 diag_done
*6 net
*7 net39
*8 net40
*9 net41
*10 net42
*11 net43
*12 net44
*13 net45
*14 net46
*15 net47
*16 net48
*17 h0[0]
*18 h0[1]
*19 h0[2]
*20 h0[3]
*21 h1[0]
*22 h1[1]
*23 h1[2]
*24 h1[3]
*25 h2[0]
*26 h2[1]
*27 h2[2]
*28 h2[3]
*29 h3[0]
*30 h3[1]
*31 h3[2]
*32 h3[3]
*33 rst
*34 start_diag
*35 x[0]
*36 x[1]
*37 x[2]
*38 x[3]
*39 y[0]
*40 y[1]
*41 y[2]
*42 y[3]
*43 y[4]
*44 y[5]
*45 y[6]
*46 y[7]
*47 y[8]
*48 y[9]
*49 _000_
*50 _001_
*51 _002_
*52 _003_
*53 _004_
*54 _005_
*55 _006_
*56 _007_
*57 _008_
*58 _009_
*59 _010_
*60 _011_
*61 _012_
*62 _013_
*63 _014_
*64 _015_
*65 _016_
*66 _017_
*67 _018_
*68 _019_
*69 _020_
*70 _021_
*71 _022_
*72 _023_
*73 _024_
*74 _025_
*75 _026_
*76 _027_
*77 _028_
*78 _029_
*79 _030_
*80 _031_
*81 _032_
*82 _033_
*83 _034_
*84 _035_
*85 _036_
*86 _037_
*87 _038_
*88 _039_
*89 _040_
*90 _041_
*91 _042_
*92 _043_
*93 _044_
*94 _045_
*95 _046_
*96 _047_
*97 _048_
*98 _049_
*99 _050_
*100 _051_
*101 _052_
*102 _053_
*103 _054_
*104 _055_
*105 _056_
*106 _057_
*107 _058_
*108 _059_
*109 _060_
*110 _061_
*111 _062_
*112 _063_
*113 _064_
*114 _065_
*115 _066_
*116 _067_
*117 _068_
*118 _069_
*119 _070_
*120 _071_
*121 _072_
*122 _073_
*123 _074_
*124 _075_
*125 _076_
*126 _077_
*127 _078_
*128 _079_
*129 _080_
*130 _081_
*131 _082_
*132 _083_
*133 _084_
*134 _085_
*135 _086_
*136 _087_
*137 _088_
*138 _089_
*139 _090_
*140 _091_
*141 _092_
*142 _093_
*143 _094_
*144 _095_
*145 _096_
*146 _097_
*147 _098_
*148 _099_
*149 _100_
*150 _101_
*151 _102_
*152 _103_
*153 _104_
*154 _105_
*155 _106_
*156 _107_
*157 _108_
*158 _109_
*159 _110_
*160 _111_
*161 _112_
*162 _113_
*163 _114_
*164 _115_
*165 _116_
*166 _117_
*167 _118_
*168 _119_
*169 _120_
*170 _121_
*171 _122_
*172 _123_
*173 _124_
*174 _125_
*175 _126_
*176 _127_
*177 _128_
*178 _129_
*179 _130_
*180 _131_
*181 _132_
*182 _133_
*183 _134_
*184 _135_
*185 _136_
*186 _137_
*187 _138_
*188 _139_
*189 _140_
*190 _141_
*191 _142_
*192 _143_
*193 _144_
*194 _145_
*195 _146_
*196 _147_
*197 _148_
*198 _149_
*199 _150_
*200 _151_
*201 _152_
*202 _153_
*203 _154_
*204 _155_
*205 _156_
*206 _157_
*207 _158_
*208 _159_
*209 _160_
*210 _161_
*211 _162_
*212 _163_
*213 _164_
*214 _165_
*215 _166_
*216 _167_
*217 _168_
*218 _169_
*219 _170_
*220 _171_
*221 _172_
*222 _173_
*223 _174_
*224 _175_
*225 _176_
*226 _177_
*227 _178_
*228 _179_
*229 _180_
*230 _181_
*231 _182_
*232 _183_
*233 _184_
*234 _185_
*235 _186_
*236 _187_
*237 _188_
*238 _189_
*239 _190_
*240 _191_
*241 _192_
*242 _193_
*243 _194_
*244 _195_
*245 _196_
*246 _197_
*247 _198_
*248 _199_
*249 _200_
*250 _201_
*251 _202_
*252 _203_
*253 _204_
*254 _205_
*255 _206_
*256 _207_
*257 _208_
*258 _209_
*259 _210_
*260 _211_
*261 _212_
*262 _213_
*263 _214_
*264 _215_
*265 _216_
*266 _217_
*267 _218_
*268 _219_
*269 _220_
*270 _221_
*271 _222_
*272 _223_
*273 _224_
*274 _225_
*275 _226_
*276 _227_
*277 _228_
*278 _229_
*279 _230_
*280 _231_
*281 _232_
*282 _233_
*283 _234_
*284 _235_
*285 _236_
*286 _237_
*287 _238_
*288 _239_
*289 _240_
*290 _241_
*291 _242_
*292 _243_
*293 _244_
*294 _245_
*295 _246_
*296 _247_
*297 _248_
*298 _249_
*299 _250_
*300 _251_
*301 _252_
*302 _253_
*303 _254_
*304 _255_
*305 _256_
*306 _257_
*307 _258_
*308 _259_
*309 _260_
*310 _261_
*311 _262_
*312 _263_
*313 _264_
*314 _265_
*315 _266_
*316 _267_
*317 _268_
*318 _269_
*319 _270_
*320 _271_
*321 _272_
*322 _273_
*323 _274_
*324 _275_
*325 _276_
*326 _277_
*327 _278_
*328 _279_
*329 _280_
*330 _281_
*331 _282_
*332 _283_
*333 _284_
*334 _285_
*335 _286_
*336 _287_
*337 _288_
*338 _289_
*339 _290_
*340 _291_
*341 _292_
*342 _293_
*343 _294_
*344 _295_
*345 _296_
*346 _297_
*347 _298_
*348 _299_
*349 _300_
*350 _301_
*351 _302_
*352 _303_
*353 _304_
*354 _305_
*355 _306_
*356 _307_
*357 _308_
*358 _309_
*359 _310_
*360 _311_
*361 _312_
*362 _313_
*363 _314_
*364 _315_
*365 _316_
*366 _317_
*367 _318_
*368 _319_
*369 _320_
*370 _321_
*371 _322_
*372 _323_
*373 _324_
*374 _325_
*375 _326_
*376 _327_
*377 _328_
*378 _329_
*379 _330_
*380 _331_
*381 _332_
*382 _333_
*383 _334_
*384 _335_
*385 _336_
*386 _337_
*387 _338_
*388 _339_
*389 _340_
*390 _341_
*391 _342_
*392 _343_
*393 _344_
*394 _345_
*395 _346_
*396 _347_
*397 _348_
*398 _349_
*399 _350_
*400 _351_
*401 _352_
*402 _353_
*403 _354_
*404 _355_
*405 _356_
*406 _357_
*407 _358_
*408 _359_
*409 _360_
*410 _361_
*411 _362_
*412 _363_
*413 _364_
*414 _365_
*415 _366_
*416 _367_
*417 _368_
*418 clknet_0_clk
*419 clknet_2_0__leaf_clk
*420 clknet_2_1__leaf_clk
*421 clknet_2_2__leaf_clk
*422 clknet_2_3__leaf_clk
*423 controller\.state\[0\]
*424 controller\.state\[10\]
*425 controller\.state\[11\]
*426 controller\.state\[1\]
*427 controller\.state\[2\]
*428 controller\.state\[3\]
*429 controller\.state\[4\]
*430 controller\.state\[5\]
*431 controller\.state\[6\]
*432 controller\.state\[7\]
*433 controller\.state\[8\]
*434 controller\.state\[9\]
*435 controller\.test_x\[0\]
*436 controller\.test_x\[1\]
*437 controller\.test_x\[2\]
*438 diagnostic\.x0\[0\]
*439 diagnostic\.x0\[1\]
*440 diagnostic\.x0\[2\]
*441 diagnostic\.x0\[3\]
*442 diagnostic\.x1\[0\]
*443 diagnostic\.x1\[1\]
*444 diagnostic\.x1\[2\]
*445 diagnostic\.x1\[3\]
*446 diagnostic\.x2\[0\]
*447 diagnostic\.x2\[1\]
*448 diagnostic\.x2\[2\]
*449 diagnostic\.x2\[3\]
*450 diagnostic\.x3\[0\]
*451 diagnostic\.x3\[1\]
*452 diagnostic\.x3\[2\]
*453 diagnostic\.x3\[3\]
*454 net1
*455 net10
*456 net100
*457 net101
*458 net102
*459 net103
*460 net104
*461 net105
*462 net106
*463 net107
*464 net108
*465 net11
*466 net12
*467 net13
*468 net14
*469 net15
*470 net16
*471 net17
*472 net18
*473 net19
*474 net2
*475 net20
*476 net21
*477 net22
*478 net23
*479 net24
*480 net25
*481 net26
*482 net27
*483 net28
*484 net29
*485 net3
*486 net30
*487 net31
*488 net32
*489 net33
*490 net34
*491 net35
*492 net36
*493 net37
*494 net38
*495 net4
*496 net49
*497 net5
*498 net50
*499 net51
*500 net52
*501 net53
*502 net54
*503 net55
*504 net56
*505 net57
*506 net6
*507 net62
*508 net63
*509 net64
*510 net65
*511 net69
*512 net7
*513 net70
*514 net8
*515 net86
*516 net87
*517 net88
*518 net89
*519 net9
*520 net90
*521 net91
*522 net92
*523 net93
*524 net94
*525 net95
*526 net96
*527 net97
*528 net98
*529 net99
*530 FILLER_0_121
*531 FILLER_0_124
*532 FILLER_0_135
*533 FILLER_0_138
*534 FILLER_0_150
*535 FILLER_0_156
*536 FILLER_0_159
*537 FILLER_0_162
*538 FILLER_0_165
*539 FILLER_0_169
*540 FILLER_0_172
*541 FILLER_0_175
*542 FILLER_0_178
*543 FILLER_0_181
*544 FILLER_0_184
*545 FILLER_0_191
*546 FILLER_0_194
*547 FILLER_0_197
*548 FILLER_0_200
*549 FILLER_0_35
*550 FILLER_0_49
*551 FILLER_0_91
*552 FILLER_0_94
*553 FILLER_10_100
*554 FILLER_10_115
*555 FILLER_10_118
*556 FILLER_10_137
*557 FILLER_10_141
*558 FILLER_10_144
*559 FILLER_10_147
*560 FILLER_10_163
*561 FILLER_10_166
*562 FILLER_10_169
*563 FILLER_10_172
*564 FILLER_10_175
*565 FILLER_10_197
*566 FILLER_10_200
*567 FILLER_10_25
*568 FILLER_10_46
*569 FILLER_10_49
*570 FILLER_10_85
*571 FILLER_11_111
*572 FILLER_11_113
*573 FILLER_11_116
*574 FILLER_11_130
*575 FILLER_11_133
*576 FILLER_11_136
*577 FILLER_11_139
*578 FILLER_11_142
*579 FILLER_11_145
*580 FILLER_11_148
*581 FILLER_11_151
*582 FILLER_11_154
*583 FILLER_11_157
*584 FILLER_11_160
*585 FILLER_11_169
*586 FILLER_11_172
*587 FILLER_11_3
*588 FILLER_11_47
*589 FILLER_11_57
*590 FILLER_11_6
*591 FILLER_11_72
*592 FILLER_12_103
*593 FILLER_12_126
*594 FILLER_12_129
*595 FILLER_12_132
*596 FILLER_12_135
*597 FILLER_12_138
*598 FILLER_12_147
*599 FILLER_12_153
*600 FILLER_12_163
*601 FILLER_12_182
*602 FILLER_12_185
*603 FILLER_12_197
*604 FILLER_12_200
*605 FILLER_12_23
*606 FILLER_12_26
*607 FILLER_12_3
*608 FILLER_12_49
*609 FILLER_12_74
*610 FILLER_12_81
*611 FILLER_12_85
*612 FILLER_12_88
*613 FILLER_13_11
*614 FILLER_13_113
*615 FILLER_13_116
*616 FILLER_13_119
*617 FILLER_13_122
*618 FILLER_13_125
*619 FILLER_13_139
*620 FILLER_13_14
*621 FILLER_13_146
*622 FILLER_13_149
*623 FILLER_13_152
*624 FILLER_13_155
*625 FILLER_13_165
*626 FILLER_13_17
*627 FILLER_13_176
*628 FILLER_13_179
*629 FILLER_13_182
*630 FILLER_13_185
*631 FILLER_13_30
*632 FILLER_13_33
*633 FILLER_13_36
*634 FILLER_13_45
*635 FILLER_13_57
*636 FILLER_13_60
*637 FILLER_13_76
*638 FILLER_14_100
*639 FILLER_14_119
*640 FILLER_14_12
*641 FILLER_14_122
*642 FILLER_14_135
*643 FILLER_14_138
*644 FILLER_14_141
*645 FILLER_14_144
*646 FILLER_14_147
*647 FILLER_14_155
*648 FILLER_14_158
*649 FILLER_14_182
*650 FILLER_14_197
*651 FILLER_14_200
*652 FILLER_14_25
*653 FILLER_14_29
*654 FILLER_14_32
*655 FILLER_14_35
*656 FILLER_14_46
*657 FILLER_14_49
*658 FILLER_14_52
*659 FILLER_14_72
*660 FILLER_14_75
*661 FILLER_14_82
*662 FILLER_15_100
*663 FILLER_15_103
*664 FILLER_15_106
*665 FILLER_15_109
*666 FILLER_15_113
*667 FILLER_15_116
*668 FILLER_15_119
*669 FILLER_15_129
*670 FILLER_15_132
*671 FILLER_15_135
*672 FILLER_15_138
*673 FILLER_15_141
*674 FILLER_15_148
*675 FILLER_15_155
*676 FILLER_15_161
*677 FILLER_15_164
*678 FILLER_15_167
*679 FILLER_15_169
*680 FILLER_15_172
*681 FILLER_15_196
*682 FILLER_15_3
*683 FILLER_15_36
*684 FILLER_15_39
*685 FILLER_15_42
*686 FILLER_15_51
*687 FILLER_15_54
*688 FILLER_15_57
*689 FILLER_15_60
*690 FILLER_15_63
*691 FILLER_15_72
*692 FILLER_15_75
*693 FILLER_15_78
*694 FILLER_15_81
*695 FILLER_15_84
*696 FILLER_15_87
*697 FILLER_15_90
*698 FILLER_16_101
*699 FILLER_16_104
*700 FILLER_16_107
*701 FILLER_16_110
*702 FILLER_16_113
*703 FILLER_16_116
*704 FILLER_16_119
*705 FILLER_16_129
*706 FILLER_16_161
*707 FILLER_16_164
*708 FILLER_16_167
*709 FILLER_16_197
*710 FILLER_16_200
*711 FILLER_16_27
*712 FILLER_16_29
*713 FILLER_16_3
*714 FILLER_16_45
*715 FILLER_16_59
*716 FILLER_16_62
*717 FILLER_16_65
*718 FILLER_16_68
*719 FILLER_16_71
*720 FILLER_16_74
*721 FILLER_16_77
*722 FILLER_16_80
*723 FILLER_16_83
*724 FILLER_16_85
*725 FILLER_17_101
*726 FILLER_17_104
*727 FILLER_17_107
*728 FILLER_17_110
*729 FILLER_17_113
*730 FILLER_17_116
*731 FILLER_17_125
*732 FILLER_17_128
*733 FILLER_17_134
*734 FILLER_17_137
*735 FILLER_17_140
*736 FILLER_17_145
*737 FILLER_17_148
*738 FILLER_17_163
*739 FILLER_17_166
*740 FILLER_17_169
*741 FILLER_17_172
*742 FILLER_17_181
*743 FILLER_17_3
*744 FILLER_17_38
*745 FILLER_17_41
*746 FILLER_17_44
*747 FILLER_17_47
*748 FILLER_17_50
*749 FILLER_17_53
*750 FILLER_17_57
*751 FILLER_17_6
*752 FILLER_17_60
*753 FILLER_17_63
*754 FILLER_17_78
*755 FILLER_17_9
*756 FILLER_17_92
*757 FILLER_17_95
*758 FILLER_17_98
*759 FILLER_18_100
*760 FILLER_18_127
*761 FILLER_18_135
*762 FILLER_18_138
*763 FILLER_18_154
*764 FILLER_18_194
*765 FILLER_18_197
*766 FILLER_18_200
*767 FILLER_18_25
*768 FILLER_18_29
*769 FILLER_18_32
*770 FILLER_18_53
*771 FILLER_18_56
*772 FILLER_18_59
*773 FILLER_18_85
*774 FILLER_19_107
*775 FILLER_19_110
*776 FILLER_19_113
*777 FILLER_19_116
*778 FILLER_19_119
*779 FILLER_19_122
*780 FILLER_19_128
*781 FILLER_19_142
*782 FILLER_19_145
*783 FILLER_19_158
*784 FILLER_19_167
*785 FILLER_19_3
*786 FILLER_19_33
*787 FILLER_19_36
*788 FILLER_19_52
*789 FILLER_19_55
*790 FILLER_19_57
*791 FILLER_19_6
*792 FILLER_19_60
*793 FILLER_19_63
*794 FILLER_19_81
*795 FILLER_19_84
*796 FILLER_1_108
*797 FILLER_1_11
*798 FILLER_1_111
*799 FILLER_1_120
*800 FILLER_1_137
*801 FILLER_1_149
*802 FILLER_1_165
*803 FILLER_1_174
*804 FILLER_1_177
*805 FILLER_1_180
*806 FILLER_1_183
*807 FILLER_1_186
*808 FILLER_1_189
*809 FILLER_1_192
*810 FILLER_1_195
*811 FILLER_1_198
*812 FILLER_1_55
*813 FILLER_1_57
*814 FILLER_20_102
*815 FILLER_20_105
*816 FILLER_20_108
*817 FILLER_20_111
*818 FILLER_20_114
*819 FILLER_20_117
*820 FILLER_20_120
*821 FILLER_20_123
*822 FILLER_20_126
*823 FILLER_20_132
*824 FILLER_20_135
*825 FILLER_20_138
*826 FILLER_20_141
*827 FILLER_20_144
*828 FILLER_20_147
*829 FILLER_20_15
*830 FILLER_20_150
*831 FILLER_20_153
*832 FILLER_20_156
*833 FILLER_20_159
*834 FILLER_20_162
*835 FILLER_20_165
*836 FILLER_20_168
*837 FILLER_20_18
*838 FILLER_20_197
*839 FILLER_20_200
*840 FILLER_20_21
*841 FILLER_20_27
*842 FILLER_20_29
*843 FILLER_20_3
*844 FILLER_20_43
*845 FILLER_20_46
*846 FILLER_20_55
*847 FILLER_20_58
*848 FILLER_20_6
*849 FILLER_20_61
*850 FILLER_20_64
*851 FILLER_20_71
*852 FILLER_20_74
*853 FILLER_20_77
*854 FILLER_20_80
*855 FILLER_20_83
*856 FILLER_20_85
*857 FILLER_20_9
*858 FILLER_20_99
*859 FILLER_21_10
*860 FILLER_21_102
*861 FILLER_21_105
*862 FILLER_21_108
*863 FILLER_21_111
*864 FILLER_21_113
*865 FILLER_21_116
*866 FILLER_21_119
*867 FILLER_21_122
*868 FILLER_21_131
*869 FILLER_21_139
*870 FILLER_21_147
*871 FILLER_21_150
*872 FILLER_21_153
*873 FILLER_21_156
*874 FILLER_21_159
*875 FILLER_21_16
*876 FILLER_21_162
*877 FILLER_21_169
*878 FILLER_21_172
*879 FILLER_21_19
*880 FILLER_21_195
*881 FILLER_21_198
*882 FILLER_21_22
*883 FILLER_21_25
*884 FILLER_21_28
*885 FILLER_21_35
*886 FILLER_21_38
*887 FILLER_21_41
*888 FILLER_21_44
*889 FILLER_21_47
*890 FILLER_21_50
*891 FILLER_21_53
*892 FILLER_21_57
*893 FILLER_21_60
*894 FILLER_21_63
*895 FILLER_21_7
*896 FILLER_21_93
*897 FILLER_21_96
*898 FILLER_21_99
*899 FILLER_22_108
*900 FILLER_22_111
*901 FILLER_22_139
*902 FILLER_22_154
*903 FILLER_22_160
*904 FILLER_22_194
*905 FILLER_22_197
*906 FILLER_22_200
*907 FILLER_22_22
*908 FILLER_22_25
*909 FILLER_22_29
*910 FILLER_22_3
*911 FILLER_22_32
*912 FILLER_22_35
*913 FILLER_22_56
*914 FILLER_22_6
*915 FILLER_22_67
*916 FILLER_22_70
*917 FILLER_22_73
*918 FILLER_22_76
*919 FILLER_22_79
*920 FILLER_22_82
*921 FILLER_22_85
*922 FILLER_22_92
*923 FILLER_23_113
*924 FILLER_23_116
*925 FILLER_23_133
*926 FILLER_23_136
*927 FILLER_23_139
*928 FILLER_23_142
*929 FILLER_23_145
*930 FILLER_23_148
*931 FILLER_23_151
*932 FILLER_23_167
*933 FILLER_23_169
*934 FILLER_23_172
*935 FILLER_23_194
*936 FILLER_23_197
*937 FILLER_23_200
*938 FILLER_23_25
*939 FILLER_23_28
*940 FILLER_23_43
*941 FILLER_23_46
*942 FILLER_23_49
*943 FILLER_23_90
*944 FILLER_24_107
*945 FILLER_24_110
*946 FILLER_24_113
*947 FILLER_24_116
*948 FILLER_24_119
*949 FILLER_24_125
*950 FILLER_24_128
*951 FILLER_24_131
*952 FILLER_24_134
*953 FILLER_24_137
*954 FILLER_24_141
*955 FILLER_24_144
*956 FILLER_24_147
*957 FILLER_24_150
*958 FILLER_24_153
*959 FILLER_24_166
*960 FILLER_24_169
*961 FILLER_24_172
*962 FILLER_24_197
*963 FILLER_24_20
*964 FILLER_24_200
*965 FILLER_24_29
*966 FILLER_24_50
*967 FILLER_24_53
*968 FILLER_24_62
*969 FILLER_24_70
*970 FILLER_24_73
*971 FILLER_24_76
*972 FILLER_24_85
*973 FILLER_24_88
*974 FILLER_25_100
*975 FILLER_25_103
*976 FILLER_25_106
*977 FILLER_25_109
*978 FILLER_25_113
*979 FILLER_25_116
*980 FILLER_25_119
*981 FILLER_25_122
*982 FILLER_25_141
*983 FILLER_25_153
*984 FILLER_25_156
*985 FILLER_25_159
*986 FILLER_25_162
*987 FILLER_25_165
*988 FILLER_25_169
*989 FILLER_25_172
*990 FILLER_25_175
*991 FILLER_25_196
*992 FILLER_25_199
*993 FILLER_25_34
*994 FILLER_25_37
*995 FILLER_25_40
*996 FILLER_25_43
*997 FILLER_25_46
*998 FILLER_25_49
*999 FILLER_25_52
*1000 FILLER_25_55
*1001 FILLER_25_57
*1002 FILLER_25_60
*1003 FILLER_25_63
*1004 FILLER_25_66
*1005 FILLER_25_69
*1006 FILLER_25_72
*1007 FILLER_25_75
*1008 FILLER_25_78
*1009 FILLER_25_84
*1010 FILLER_25_91
*1011 FILLER_25_94
*1012 FILLER_25_97
*1013 FILLER_26_100
*1014 FILLER_26_103
*1015 FILLER_26_106
*1016 FILLER_26_109
*1017 FILLER_26_112
*1018 FILLER_26_115
*1019 FILLER_26_135
*1020 FILLER_26_138
*1021 FILLER_26_141
*1022 FILLER_26_176
*1023 FILLER_26_191
*1024 FILLER_26_194
*1025 FILLER_26_197
*1026 FILLER_26_200
*1027 FILLER_26_22
*1028 FILLER_26_25
*1029 FILLER_26_29
*1030 FILLER_26_3
*1031 FILLER_26_32
*1032 FILLER_26_40
*1033 FILLER_26_43
*1034 FILLER_26_46
*1035 FILLER_26_49
*1036 FILLER_26_6
*1037 FILLER_26_70
*1038 FILLER_26_73
*1039 FILLER_26_76
*1040 FILLER_26_85
*1041 FILLER_26_88
*1042 FILLER_26_91
*1043 FILLER_26_94
*1044 FILLER_26_97
*1045 FILLER_27_113
*1046 FILLER_27_116
*1047 FILLER_27_119
*1048 FILLER_27_129
*1049 FILLER_27_143
*1050 FILLER_27_157
*1051 FILLER_27_160
*1052 FILLER_27_163
*1053 FILLER_27_166
*1054 FILLER_27_182
*1055 FILLER_27_190
*1056 FILLER_27_23
*1057 FILLER_27_39
*1058 FILLER_27_42
*1059 FILLER_27_45
*1060 FILLER_27_55
*1061 FILLER_27_62
*1062 FILLER_27_65
*1063 FILLER_27_98
*1064 FILLER_28_107
*1065 FILLER_28_110
*1066 FILLER_28_113
*1067 FILLER_28_116
*1068 FILLER_28_119
*1069 FILLER_28_122
*1070 FILLER_28_128
*1071 FILLER_28_13
*1072 FILLER_28_131
*1073 FILLER_28_134
*1074 FILLER_28_137
*1075 FILLER_28_141
*1076 FILLER_28_144
*1077 FILLER_28_147
*1078 FILLER_28_150
*1079 FILLER_28_153
*1080 FILLER_28_156
*1081 FILLER_28_159
*1082 FILLER_28_162
*1083 FILLER_28_165
*1084 FILLER_28_168
*1085 FILLER_28_185
*1086 FILLER_28_197
*1087 FILLER_28_200
*1088 FILLER_28_29
*1089 FILLER_28_32
*1090 FILLER_28_47
*1091 FILLER_28_50
*1092 FILLER_28_62
*1093 FILLER_28_65
*1094 FILLER_28_68
*1095 FILLER_28_81
*1096 FILLER_28_89
*1097 FILLER_28_92
*1098 FILLER_29_10
*1099 FILLER_29_107
*1100 FILLER_29_110
*1101 FILLER_29_113
*1102 FILLER_29_116
*1103 FILLER_29_119
*1104 FILLER_29_122
*1105 FILLER_29_136
*1106 FILLER_29_139
*1107 FILLER_29_142
*1108 FILLER_29_145
*1109 FILLER_29_167
*1110 FILLER_29_169
*1111 FILLER_29_172
*1112 FILLER_29_200
*1113 FILLER_29_24
*1114 FILLER_29_27
*1115 FILLER_29_42
*1116 FILLER_29_45
*1117 FILLER_29_48
*1118 FILLER_29_57
*1119 FILLER_29_60
*1120 FILLER_29_63
*1121 FILLER_29_66
*1122 FILLER_29_69
*1123 FILLER_29_7
*1124 FILLER_29_72
*1125 FILLER_29_87
*1126 FILLER_29_90
*1127 FILLER_29_93
*1128 FILLER_2_102
*1129 FILLER_2_105
*1130 FILLER_2_119
*1131 FILLER_2_126
*1132 FILLER_2_129
*1133 FILLER_2_147
*1134 FILLER_2_156
*1135 FILLER_2_164
*1136 FILLER_2_167
*1137 FILLER_2_170
*1138 FILLER_2_179
*1139 FILLER_2_187
*1140 FILLER_2_190
*1141 FILLER_2_193
*1142 FILLER_2_197
*1143 FILLER_2_200
*1144 FILLER_2_32
*1145 FILLER_2_66
*1146 FILLER_30_115
*1147 FILLER_30_137
*1148 FILLER_30_141
*1149 FILLER_30_144
*1150 FILLER_30_16
*1151 FILLER_30_168
*1152 FILLER_30_171
*1153 FILLER_30_174
*1154 FILLER_30_188
*1155 FILLER_30_191
*1156 FILLER_30_194
*1157 FILLER_30_197
*1158 FILLER_30_200
*1159 FILLER_30_24
*1160 FILLER_30_27
*1161 FILLER_30_3
*1162 FILLER_30_35
*1163 FILLER_30_38
*1164 FILLER_30_41
*1165 FILLER_30_6
*1166 FILLER_30_69
*1167 FILLER_30_72
*1168 FILLER_30_75
*1169 FILLER_30_78
*1170 FILLER_30_81
*1171 FILLER_30_85
*1172 FILLER_30_88
*1173 FILLER_30_9
*1174 FILLER_31_113
*1175 FILLER_31_12
*1176 FILLER_31_128
*1177 FILLER_31_142
*1178 FILLER_31_145
*1179 FILLER_31_148
*1180 FILLER_31_165
*1181 FILLER_31_169
*1182 FILLER_31_172
*1183 FILLER_31_175
*1184 FILLER_31_178
*1185 FILLER_31_181
*1186 FILLER_31_184
*1187 FILLER_31_187
*1188 FILLER_31_197
*1189 FILLER_31_200
*1190 FILLER_31_3
*1191 FILLER_31_37
*1192 FILLER_31_40
*1193 FILLER_31_43
*1194 FILLER_31_53
*1195 FILLER_31_6
*1196 FILLER_31_68
*1197 FILLER_31_71
*1198 FILLER_31_9
*1199 FILLER_32_101
*1200 FILLER_32_104
*1201 FILLER_32_112
*1202 FILLER_32_115
*1203 FILLER_32_118
*1204 FILLER_32_12
*1205 FILLER_32_121
*1206 FILLER_32_15
*1207 FILLER_32_18
*1208 FILLER_32_180
*1209 FILLER_32_183
*1210 FILLER_32_186
*1211 FILLER_32_189
*1212 FILLER_32_192
*1213 FILLER_32_197
*1214 FILLER_32_42
*1215 FILLER_32_45
*1216 FILLER_32_71
*1217 FILLER_32_74
*1218 FILLER_32_80
*1219 FILLER_32_83
*1220 FILLER_32_9
*1221 FILLER_33_102
*1222 FILLER_33_105
*1223 FILLER_33_108
*1224 FILLER_33_111
*1225 FILLER_33_113
*1226 FILLER_33_116
*1227 FILLER_33_119
*1228 FILLER_33_12
*1229 FILLER_33_138
*1230 FILLER_33_141
*1231 FILLER_33_15
*1232 FILLER_33_153
*1233 FILLER_33_167
*1234 FILLER_33_169
*1235 FILLER_33_179
*1236 FILLER_33_18
*1237 FILLER_33_182
*1238 FILLER_33_185
*1239 FILLER_33_188
*1240 FILLER_33_191
*1241 FILLER_33_197
*1242 FILLER_33_21
*1243 FILLER_33_24
*1244 FILLER_33_27
*1245 FILLER_33_29
*1246 FILLER_33_32
*1247 FILLER_33_35
*1248 FILLER_33_38
*1249 FILLER_33_41
*1250 FILLER_33_44
*1251 FILLER_33_47
*1252 FILLER_33_50
*1253 FILLER_33_53
*1254 FILLER_33_57
*1255 FILLER_33_60
*1256 FILLER_33_63
*1257 FILLER_33_66
*1258 FILLER_33_82
*1259 FILLER_33_85
*1260 FILLER_33_88
*1261 FILLER_33_96
*1262 FILLER_33_99
*1263 FILLER_3_102
*1264 FILLER_3_105
*1265 FILLER_3_123
*1266 FILLER_3_138
*1267 FILLER_3_141
*1268 FILLER_3_144
*1269 FILLER_3_154
*1270 FILLER_3_182
*1271 FILLER_3_185
*1272 FILLER_3_195
*1273 FILLER_3_198
*1274 FILLER_3_46
*1275 FILLER_3_57
*1276 FILLER_3_67
*1277 FILLER_3_96
*1278 FILLER_3_99
*1279 FILLER_4_105
*1280 FILLER_4_125
*1281 FILLER_4_128
*1282 FILLER_4_131
*1283 FILLER_4_141
*1284 FILLER_4_156
*1285 FILLER_4_159
*1286 FILLER_4_162
*1287 FILLER_4_165
*1288 FILLER_4_168
*1289 FILLER_4_171
*1290 FILLER_4_179
*1291 FILLER_4_189
*1292 FILLER_4_192
*1293 FILLER_4_195
*1294 FILLER_4_197
*1295 FILLER_4_200
*1296 FILLER_4_26
*1297 FILLER_4_37
*1298 FILLER_4_47
*1299 FILLER_4_56
*1300 FILLER_4_59
*1301 FILLER_4_70
*1302 FILLER_4_81
*1303 FILLER_5_109
*1304 FILLER_5_126
*1305 FILLER_5_129
*1306 FILLER_5_132
*1307 FILLER_5_135
*1308 FILLER_5_138
*1309 FILLER_5_141
*1310 FILLER_5_144
*1311 FILLER_5_147
*1312 FILLER_5_150
*1313 FILLER_5_162
*1314 FILLER_5_165
*1315 FILLER_5_169
*1316 FILLER_5_3
*1317 FILLER_5_53
*1318 FILLER_5_57
*1319 FILLER_5_98
*1320 FILLER_6_102
*1321 FILLER_6_117
*1322 FILLER_6_131
*1323 FILLER_6_134
*1324 FILLER_6_137
*1325 FILLER_6_141
*1326 FILLER_6_144
*1327 FILLER_6_147
*1328 FILLER_6_150
*1329 FILLER_6_153
*1330 FILLER_6_173
*1331 FILLER_6_176
*1332 FILLER_6_195
*1333 FILLER_6_197
*1334 FILLER_6_200
*1335 FILLER_6_29
*1336 FILLER_6_62
*1337 FILLER_6_65
*1338 FILLER_6_93
*1339 FILLER_6_96
*1340 FILLER_6_99
*1341 FILLER_7_107
*1342 FILLER_7_110
*1343 FILLER_7_113
*1344 FILLER_7_116
*1345 FILLER_7_119
*1346 FILLER_7_159
*1347 FILLER_7_195
*1348 FILLER_7_198
*1349 FILLER_7_26
*1350 FILLER_7_45
*1351 FILLER_7_52
*1352 FILLER_7_55
*1353 FILLER_7_74
*1354 FILLER_8_100
*1355 FILLER_8_118
*1356 FILLER_8_121
*1357 FILLER_8_124
*1358 FILLER_8_127
*1359 FILLER_8_130
*1360 FILLER_8_149
*1361 FILLER_8_152
*1362 FILLER_8_155
*1363 FILLER_8_161
*1364 FILLER_8_164
*1365 FILLER_8_167
*1366 FILLER_8_170
*1367 FILLER_8_173
*1368 FILLER_8_189
*1369 FILLER_8_192
*1370 FILLER_8_195
*1371 FILLER_8_197
*1372 FILLER_8_200
*1373 FILLER_8_25
*1374 FILLER_8_29
*1375 FILLER_8_47
*1376 FILLER_8_74
*1377 FILLER_8_83
*1378 FILLER_8_91
*1379 FILLER_8_94
*1380 FILLER_8_97
*1381 FILLER_9_107
*1382 FILLER_9_110
*1383 FILLER_9_113
*1384 FILLER_9_116
*1385 FILLER_9_119
*1386 FILLER_9_122
*1387 FILLER_9_135
*1388 FILLER_9_148
*1389 FILLER_9_151
*1390 FILLER_9_154
*1391 FILLER_9_157
*1392 FILLER_9_160
*1393 FILLER_9_167
*1394 FILLER_9_169
*1395 FILLER_9_172
*1396 FILLER_9_175
*1397 FILLER_9_178
*1398 FILLER_9_192
*1399 FILLER_9_29
*1400 FILLER_9_3
*1401 FILLER_9_32
*1402 FILLER_9_57
*1403 FILLER_9_60
*1404 FILLER_9_69
*1405 FILLER_9_80
*1406 FILLER_9_83
*1407 PHY_EDGE_ROW_0_Left_34
*1408 PHY_EDGE_ROW_0_Right_0
*1409 PHY_EDGE_ROW_10_Left_44
*1410 PHY_EDGE_ROW_10_Right_10
*1411 PHY_EDGE_ROW_11_Left_45
*1412 PHY_EDGE_ROW_11_Right_11
*1413 PHY_EDGE_ROW_12_Left_46
*1414 PHY_EDGE_ROW_12_Right_12
*1415 PHY_EDGE_ROW_13_Left_47
*1416 PHY_EDGE_ROW_13_Right_13
*1417 PHY_EDGE_ROW_14_Left_48
*1418 PHY_EDGE_ROW_14_Right_14
*1419 PHY_EDGE_ROW_15_Left_49
*1420 PHY_EDGE_ROW_15_Right_15
*1421 PHY_EDGE_ROW_16_Left_50
*1422 PHY_EDGE_ROW_16_Right_16
*1423 PHY_EDGE_ROW_17_Left_51
*1424 PHY_EDGE_ROW_17_Right_17
*1425 PHY_EDGE_ROW_18_Left_52
*1426 PHY_EDGE_ROW_18_Right_18
*1427 PHY_EDGE_ROW_19_Left_53
*1428 PHY_EDGE_ROW_19_Right_19
*1429 PHY_EDGE_ROW_1_Left_35
*1430 PHY_EDGE_ROW_1_Right_1
*1431 PHY_EDGE_ROW_20_Left_54
*1432 PHY_EDGE_ROW_20_Right_20
*1433 PHY_EDGE_ROW_21_Left_55
*1434 PHY_EDGE_ROW_21_Right_21
*1435 PHY_EDGE_ROW_22_Left_56
*1436 PHY_EDGE_ROW_22_Right_22
*1437 PHY_EDGE_ROW_23_Left_57
*1438 PHY_EDGE_ROW_23_Right_23
*1439 PHY_EDGE_ROW_24_Left_58
*1440 PHY_EDGE_ROW_24_Right_24
*1441 PHY_EDGE_ROW_25_Left_59
*1442 PHY_EDGE_ROW_25_Right_25
*1443 PHY_EDGE_ROW_26_Left_60
*1444 PHY_EDGE_ROW_26_Right_26
*1445 PHY_EDGE_ROW_27_Left_61
*1446 PHY_EDGE_ROW_27_Right_27
*1447 PHY_EDGE_ROW_28_Left_62
*1448 PHY_EDGE_ROW_28_Right_28
*1449 PHY_EDGE_ROW_29_Left_63
*1450 PHY_EDGE_ROW_29_Right_29
*1451 PHY_EDGE_ROW_2_Left_36
*1452 PHY_EDGE_ROW_2_Right_2
*1453 PHY_EDGE_ROW_30_Left_64
*1454 PHY_EDGE_ROW_30_Right_30
*1455 PHY_EDGE_ROW_31_Left_65
*1456 PHY_EDGE_ROW_31_Right_31
*1457 PHY_EDGE_ROW_32_Left_66
*1458 PHY_EDGE_ROW_32_Right_32
*1459 PHY_EDGE_ROW_33_Left_67
*1460 PHY_EDGE_ROW_33_Right_33
*1461 PHY_EDGE_ROW_3_Left_37
*1462 PHY_EDGE_ROW_3_Right_3
*1463 PHY_EDGE_ROW_4_Left_38
*1464 PHY_EDGE_ROW_4_Right_4
*1465 PHY_EDGE_ROW_5_Left_39
*1466 PHY_EDGE_ROW_5_Right_5
*1467 PHY_EDGE_ROW_6_Left_40
*1468 PHY_EDGE_ROW_6_Right_6
*1469 PHY_EDGE_ROW_7_Left_41
*1470 PHY_EDGE_ROW_7_Right_7
*1471 PHY_EDGE_ROW_8_Left_42
*1472 PHY_EDGE_ROW_8_Right_8
*1473 PHY_EDGE_ROW_9_Left_43
*1474 PHY_EDGE_ROW_9_Right_9
*1475 TAP_TAPCELL_ROW_0_68
*1476 TAP_TAPCELL_ROW_0_69
*1477 TAP_TAPCELL_ROW_0_70
*1478 TAP_TAPCELL_ROW_0_71
*1479 TAP_TAPCELL_ROW_0_72
*1480 TAP_TAPCELL_ROW_0_73
*1481 TAP_TAPCELL_ROW_0_74
*1482 TAP_TAPCELL_ROW_10_106
*1483 TAP_TAPCELL_ROW_10_107
*1484 TAP_TAPCELL_ROW_10_108
*1485 TAP_TAPCELL_ROW_10_109
*1486 TAP_TAPCELL_ROW_11_110
*1487 TAP_TAPCELL_ROW_11_111
*1488 TAP_TAPCELL_ROW_11_112
*1489 TAP_TAPCELL_ROW_12_113
*1490 TAP_TAPCELL_ROW_12_114
*1491 TAP_TAPCELL_ROW_12_115
*1492 TAP_TAPCELL_ROW_12_116
*1493 TAP_TAPCELL_ROW_13_117
*1494 TAP_TAPCELL_ROW_13_118
*1495 TAP_TAPCELL_ROW_13_119
*1496 TAP_TAPCELL_ROW_14_120
*1497 TAP_TAPCELL_ROW_14_121
*1498 TAP_TAPCELL_ROW_14_122
*1499 TAP_TAPCELL_ROW_14_123
*1500 TAP_TAPCELL_ROW_15_124
*1501 TAP_TAPCELL_ROW_15_125
*1502 TAP_TAPCELL_ROW_15_126
*1503 TAP_TAPCELL_ROW_16_127
*1504 TAP_TAPCELL_ROW_16_128
*1505 TAP_TAPCELL_ROW_16_129
*1506 TAP_TAPCELL_ROW_16_130
*1507 TAP_TAPCELL_ROW_17_131
*1508 TAP_TAPCELL_ROW_17_132
*1509 TAP_TAPCELL_ROW_17_133
*1510 TAP_TAPCELL_ROW_18_134
*1511 TAP_TAPCELL_ROW_18_135
*1512 TAP_TAPCELL_ROW_18_136
*1513 TAP_TAPCELL_ROW_18_137
*1514 TAP_TAPCELL_ROW_19_138
*1515 TAP_TAPCELL_ROW_19_139
*1516 TAP_TAPCELL_ROW_19_140
*1517 TAP_TAPCELL_ROW_1_75
*1518 TAP_TAPCELL_ROW_1_76
*1519 TAP_TAPCELL_ROW_1_77
*1520 TAP_TAPCELL_ROW_20_141
*1521 TAP_TAPCELL_ROW_20_142
*1522 TAP_TAPCELL_ROW_20_143
*1523 TAP_TAPCELL_ROW_20_144
*1524 TAP_TAPCELL_ROW_21_145
*1525 TAP_TAPCELL_ROW_21_146
*1526 TAP_TAPCELL_ROW_21_147
*1527 TAP_TAPCELL_ROW_22_148
*1528 TAP_TAPCELL_ROW_22_149
*1529 TAP_TAPCELL_ROW_22_150
*1530 TAP_TAPCELL_ROW_22_151
*1531 TAP_TAPCELL_ROW_23_152
*1532 TAP_TAPCELL_ROW_23_153
*1533 TAP_TAPCELL_ROW_23_154
*1534 TAP_TAPCELL_ROW_24_155
*1535 TAP_TAPCELL_ROW_24_156
*1536 TAP_TAPCELL_ROW_24_157
*1537 TAP_TAPCELL_ROW_24_158
*1538 TAP_TAPCELL_ROW_25_159
*1539 TAP_TAPCELL_ROW_25_160
*1540 TAP_TAPCELL_ROW_25_161
*1541 TAP_TAPCELL_ROW_26_162
*1542 TAP_TAPCELL_ROW_26_163
*1543 TAP_TAPCELL_ROW_26_164
*1544 TAP_TAPCELL_ROW_26_165
*1545 TAP_TAPCELL_ROW_27_166
*1546 TAP_TAPCELL_ROW_27_167
*1547 TAP_TAPCELL_ROW_27_168
*1548 TAP_TAPCELL_ROW_28_169
*1549 TAP_TAPCELL_ROW_28_170
*1550 TAP_TAPCELL_ROW_28_171
*1551 TAP_TAPCELL_ROW_28_172
*1552 TAP_TAPCELL_ROW_29_173
*1553 TAP_TAPCELL_ROW_29_174
*1554 TAP_TAPCELL_ROW_29_175
*1555 TAP_TAPCELL_ROW_2_78
*1556 TAP_TAPCELL_ROW_2_79
*1557 TAP_TAPCELL_ROW_2_80
*1558 TAP_TAPCELL_ROW_2_81
*1559 TAP_TAPCELL_ROW_30_176
*1560 TAP_TAPCELL_ROW_30_177
*1561 TAP_TAPCELL_ROW_30_178
*1562 TAP_TAPCELL_ROW_30_179
*1563 TAP_TAPCELL_ROW_31_180
*1564 TAP_TAPCELL_ROW_31_181
*1565 TAP_TAPCELL_ROW_31_182
*1566 TAP_TAPCELL_ROW_32_183
*1567 TAP_TAPCELL_ROW_32_184
*1568 TAP_TAPCELL_ROW_32_185
*1569 TAP_TAPCELL_ROW_32_186
*1570 TAP_TAPCELL_ROW_33_187
*1571 TAP_TAPCELL_ROW_33_188
*1572 TAP_TAPCELL_ROW_33_189
*1573 TAP_TAPCELL_ROW_33_190
*1574 TAP_TAPCELL_ROW_33_191
*1575 TAP_TAPCELL_ROW_33_192
*1576 TAP_TAPCELL_ROW_33_193
*1577 TAP_TAPCELL_ROW_3_82
*1578 TAP_TAPCELL_ROW_3_83
*1579 TAP_TAPCELL_ROW_3_84
*1580 TAP_TAPCELL_ROW_4_85
*1581 TAP_TAPCELL_ROW_4_86
*1582 TAP_TAPCELL_ROW_4_87
*1583 TAP_TAPCELL_ROW_4_88
*1584 TAP_TAPCELL_ROW_5_89
*1585 TAP_TAPCELL_ROW_5_90
*1586 TAP_TAPCELL_ROW_5_91
*1587 TAP_TAPCELL_ROW_6_92
*1588 TAP_TAPCELL_ROW_6_93
*1589 TAP_TAPCELL_ROW_6_94
*1590 TAP_TAPCELL_ROW_6_95
*1591 TAP_TAPCELL_ROW_7_96
*1592 TAP_TAPCELL_ROW_7_97
*1593 TAP_TAPCELL_ROW_7_98
*1594 TAP_TAPCELL_ROW_8_100
*1595 TAP_TAPCELL_ROW_8_101
*1596 TAP_TAPCELL_ROW_8_102
*1597 TAP_TAPCELL_ROW_8_99
*1598 TAP_TAPCELL_ROW_9_103
*1599 TAP_TAPCELL_ROW_9_104
*1600 TAP_TAPCELL_ROW_9_105
*1601 _369_
*1602 _370_
*1603 _371_
*1604 _372_
*1605 _373_
*1606 _374_
*1607 _375_
*1608 _376_
*1609 _377_
*1610 _378_
*1611 _379_
*1612 _380_
*1613 _381_
*1614 _382_
*1615 _383_
*1616 _384_
*1617 _385_
*1618 _386_
*1619 _387_
*1620 _388_
*1621 _389_
*1622 _390_
*1623 _391_
*1624 _392_
*1625 _393_
*1626 _394_
*1627 _395_
*1628 _396_
*1629 _397_
*1630 _398_
*1631 _399_
*1632 _400_
*1633 _401_
*1634 _402_
*1635 _403_
*1636 _404_
*1637 _405_
*1638 _406_
*1639 _407_
*1640 _408_
*1641 _409_
*1642 _410_
*1643 _411_
*1644 _412_
*1645 _413_
*1646 _414_
*1647 _415_
*1648 _416_
*1649 _417_
*1650 _418_
*1651 _419_
*1652 _420_
*1653 _421_
*1654 _422_
*1655 _423_
*1656 _424_
*1657 _425_
*1658 _426_
*1659 _427_
*1660 _428_
*1661 _429_
*1662 _430_
*1663 _431_
*1664 _432_
*1665 _433_
*1666 _434_
*1667 _435_
*1668 _436_
*1669 _437_
*1670 _438_
*1671 _439_
*1672 _440_
*1673 _441_
*1674 _442_
*1675 _443_
*1676 _444_
*1677 _445_
*1678 _446_
*1679 _447_
*1680 _448_
*1681 _449_
*1682 _450_
*1683 _451_
*1684 _452_
*1685 _453_
*1686 _454_
*1687 _455_
*1688 _456_
*1689 _457_
*1690 _458_
*1691 _459_
*1692 _460_
*1693 _461_
*1694 _462_
*1695 _463_
*1696 _464_
*1697 _465_
*1698 _466_
*1699 _467_
*1700 _468_
*1701 _469_
*1702 _470_
*1703 _471_
*1704 _472_
*1705 _473_
*1706 _474_
*1707 _475_
*1708 _476_
*1709 _477_
*1710 _478_
*1711 _479_
*1712 _480_
*1713 _481_
*1714 _482_
*1715 _483_
*1716 _484_
*1717 _485_
*1718 _486_
*1719 _487_
*1720 _488_
*1721 _489_
*1722 _490_
*1723 _491_
*1724 _492_
*1725 _493_
*1726 _494_
*1727 _495_
*1728 _496_
*1729 _497_
*1730 _498_
*1731 _499_
*1732 _500_
*1733 _501_
*1734 _502_
*1735 _503_
*1736 _504_
*1737 _505_
*1738 _506_
*1739 _507_
*1740 _508_
*1741 _509_
*1742 _510_
*1743 _511_
*1744 _512_
*1745 _513_
*1746 _514_
*1747 _515_
*1748 _516_
*1749 _517_
*1750 _518_
*1751 _519_
*1752 _520_
*1753 _521_
*1754 _522_
*1755 _523_
*1756 _524_
*1757 _525_
*1758 _526_
*1759 _527_
*1760 _528_
*1761 _529_
*1762 _530_
*1763 _531_
*1764 _532_
*1765 _533_
*1766 _534_
*1767 _535_
*1768 _536_
*1769 _537_
*1770 _538_
*1771 _539_
*1772 _540_
*1773 _541_
*1774 _542_
*1775 _543_
*1776 _544_
*1777 _545_
*1778 _546_
*1779 _547_
*1780 _548_
*1781 _549_
*1782 _550_
*1783 _551_
*1784 _552_
*1785 _553_
*1786 _554_
*1787 _555_
*1788 _556_
*1789 _557_
*1790 _558_
*1791 _559_
*1792 _560_
*1793 _561_
*1794 _562_
*1795 _563_
*1796 _564_
*1797 _565_
*1798 _566_
*1799 _567_
*1800 _568_
*1801 _569_
*1802 _570_
*1803 _571_
*1804 _572_
*1805 _573_
*1806 _574_
*1807 _575_
*1808 _576_
*1809 _577_
*1810 _578_
*1811 _579_
*1812 _580_
*1813 _581_
*1814 _582_
*1815 _583_
*1816 _584_
*1817 _585_
*1818 _586_
*1819 _587_
*1820 _588_
*1821 _589_
*1822 _590_
*1823 _591_
*1824 _592_
*1825 _593_
*1826 _594_
*1827 _595_
*1828 _596_
*1829 _597_
*1830 _598_
*1831 _599_
*1832 _600_
*1833 _601_
*1834 _602_
*1835 _603_
*1836 _604_
*1837 _605_
*1838 _606_
*1839 _607_
*1840 _608_
*1841 _609_
*1842 _610_
*1843 _611_
*1844 _612_
*1845 _613_
*1846 _614_
*1847 _615_
*1848 _616_
*1849 _617_
*1850 _618_
*1851 _619_
*1852 _620_
*1853 _621_
*1854 _622_
*1855 _623_
*1856 _624_
*1857 _625_
*1858 _626_
*1859 _627_
*1860 _628_
*1861 _629_
*1862 _630_
*1863 _631_
*1864 _632_
*1865 _633_
*1866 _634_
*1867 _635_
*1868 _636_
*1869 _637_
*1870 _638_
*1871 _639_
*1872 _640_
*1873 _641_
*1874 _642_
*1875 _643_
*1876 _644_
*1877 _645_
*1878 _646_
*1879 _647_
*1880 _648_
*1881 _649_
*1882 _650_
*1883 _651_
*1884 _652_
*1885 _653_
*1886 _654_
*1887 _655_
*1888 _656_
*1889 _657_
*1890 _658_
*1891 _659_
*1892 _660_
*1893 _661_
*1894 _662_
*1895 _663_
*1896 _664_
*1897 _665_
*1898 _666_
*1899 _667_
*1900 _668_
*1901 _669_
*1902 _670_
*1903 _671_
*1904 _672_
*1905 _673_
*1906 _674_
*1907 _675_
*1908 _676_
*1909 _677_
*1910 _678_
*1911 _679_
*1912 _680_
*1913 _681_
*1914 _682_
*1915 _683_
*1916 _684_
*1917 _685_
*1918 _686_
*1919 _687_
*1920 _688_
*1921 _689_
*1922 _690_
*1923 _691_
*1924 _692_
*1925 _693_
*1926 _694_
*1927 _695_
*1928 _696_
*1929 _697_
*1930 _698_
*1931 _699_
*1932 _700_
*1933 _701_
*1934 _702_
*1935 _703_
*1936 _704_
*1937 _705_
*1938 _706_
*1939 _707_
*1940 _708_
*1941 _709_
*1942 _710_
*1943 _711_
*1944 _712_
*1945 _713_
*1946 _714_
*1947 _715_
*1948 _716_
*1949 _717_
*1950 _718_
*1951 _719_
*1952 _720_
*1953 _721_
*1954 _722_
*1955 _723_
*1956 _724_
*1957 _725_
*1958 _726_
*1959 _727_
*1960 _728_
*1961 _729_
*1962 _730_
*1963 _731_
*1964 _732_
*1965 _733_
*1966 _734_
*1967 _735_
*1968 _736_
*1969 _737_
*1970 _738_
*1971 _739_
*1972 _740_
*1973 _741_
*1974 _742_
*1975 _743_
*1976 _744_
*1977 _745_
*1978 _746_
*1979 _747_
*1980 _748_
*1981 _749_
*1982 _750_
*1983 _751_
*1984 _752_
*1985 _753_
*1986 _754_
*1987 _755_
*1988 _756_
*1989 _757_
*1990 _758_
*1991 _759_
*1992 _760_
*1993 _761_
*1994 _762_
*1995 _763_
*1996 _764_
*1997 _765_
*1998 _766_
*1999 _767_
*2000 _768_
*2001 _769_
*2002 _770_
*2003 _771_
*2004 _772_
*2005 _773_
*2006 _774_
*2007 _775_
*2008 _776_
*2009 _777_
*2010 _778_
*2011 _779_
*2012 _780_
*2013 clkbuf_0_clk
*2014 clkbuf_2_0__f_clk
*2015 clkbuf_2_1__f_clk
*2016 clkbuf_2_2__f_clk
*2017 clkbuf_2_3__f_clk
*2018 clkload0
*2019 clkload1
*2020 clkload2
*2021 fanout35
*2022 fanout36
*2023 fanout37
*2024 fanout38
*2025 hold100
*2026 hold101
*2027 hold102
*2028 hold103
*2029 hold104
*2030 hold105
*2031 hold106
*2032 hold107
*2033 hold108
*2034 hold86
*2035 hold87
*2036 hold88
*2037 hold89
*2038 hold90
*2039 hold91
*2040 hold92
*2041 hold93
*2042 hold94
*2043 hold95
*2044 hold96
*2045 hold97
*2046 hold98
*2047 hold99
*2048 input1
*2049 input10
*2050 input11
*2051 input12
*2052 input13
*2053 input14
*2054 input15
*2055 input16
*2056 input17
*2057 input18
*2058 input19
*2059 input2
*2060 input20
*2061 input21
*2062 input22
*2063 input3
*2064 input4
*2065 input5
*2066 input6
*2067 input7
*2068 input8
*2069 input9
*2070 output23
*2071 output24
*2072 output25
*2073 output26
*2074 output27
*2075 output28
*2076 output29
*2077 output30
*2078 output31
*2079 output32
*2080 output33
*2081 output34
*2082 rebuffer49
*2083 rebuffer50
*2084 rebuffer51
*2085 rebuffer52
*2086 rebuffer53
*2087 rebuffer54
*2088 rebuffer55
*2089 rebuffer56
*2090 rebuffer57
*2091 rebuffer62
*2092 rebuffer63
*2093 rebuffer64
*2094 rebuffer65
*2095 rebuffer69
*2096 rebuffer70
*2097 self_diagnosing_fir
*2098 self_diagnosing_fir_39
*2099 self_diagnosing_fir_40
*2100 self_diagnosing_fir_41
*2101 self_diagnosing_fir_42
*2102 self_diagnosing_fir_43
*2103 self_diagnosing_fir_44
*2104 self_diagnosing_fir_45
*2105 self_diagnosing_fir_46
*2106 self_diagnosing_fir_47
*2107 self_diagnosing_fir_48

*PORTS
clk I
diag_busy O
diag_done O
fault_bit[0] O
fault_bit[1] O
fault_bit[2] O
fault_detected O
fault_location[0] O
fault_location[1] O
fault_type O
fault_vector[0] O
fault_vector[1] O
fault_vector[2] O
fault_vector[3] O
h0[0] I
h0[1] I
h0[2] I
h0[3] I
h1[0] I
h1[1] I
h1[2] I
h1[3] I
h2[0] I
h2[1] I
h2[2] I
h2[3] I
h3[0] I
h3[1] I
h3[2] I
h3[3] I
rst I
start_diag I
x[0] I
x[1] I
x[2] I
x[3] I
y[0] O
y[1] O
y[2] O
y[3] O
y[4] O
y[5] O
y[6] O
y[7] O
y[8] O
y[9] O

*D_NET *3 0.00641749
*CONN
*P clk I
*I *2013:A I *D sky130_fd_sc_hd__clkbuf_16
*CAP
1 clk 0.00205475
2 *2013:A 8.82417e-05
3 *3:46 0.000355189
4 *3:34 0.00232169
5 *2013:A *1942:A 7.11673e-05
6 *2013:A *1942:B 1.08677e-05
7 *2013:A *443:12 4.7072e-06
8 *3:34 *1950:A1 0
9 *3:34 *1950:B1 0
10 *3:34 *1954:A 0.000188271
11 *3:34 *1957:A0 7.11365e-05
12 *3:34 *1957:A1 2.74773e-05
13 *3:34 *1957:S 9.48717e-06
14 *3:34 *1959:A1 9.96427e-06
15 *3:34 *1959:S 6.08463e-05
16 *3:34 *1961:A1 0.000103164
17 *3:34 *1981:D 0.000122424
18 *3:34 *1987:D 0.000174893
19 *3:34 *2007:D 0
20 *3:34 *2025:A 6.47357e-05
21 *3:34 *2027:A 1.9872e-05
22 *3:34 *2029:A 6.43169e-05
23 *3:34 *2035:A 0
24 *3:34 *2057:A 0
25 *3:34 *2058:A 7.33412e-05
26 *3:34 *423:12 0.000208032
27 *3:34 *471:32 2.87867e-05
28 *3:34 *491:91 5.72004e-05
29 *3:34 *491:100 7.66727e-05
30 *3:34 *491:106 7.8711e-05
31 *3:46 *1942:B 1.03502e-06
32 *3:46 *438:10 7.05093e-05
*RES
1 clk *3:34 48.88 
2 *3:34 *3:46 8.455 
3 *3:46 *2013:A 3.535 
*END

*D_NET *4 0.00177914
*CONN
*P diag_busy O
*I *2070:X O *D sky130_fd_sc_hd__clkdlybuf4s25_1
*CAP
1 diag_busy 0.000527787
2 *2070:X 0.000527787
3 diag_busy *1962:A 0.000150149
4 diag_busy *1984:CLK 0
5 diag_busy *1985:CLK 0
6 diag_busy *2061:A 0.000200509
7 diag_busy *2062:A 0.000372903
*RES
1 *2070:X diag_busy 12.3566 
*END

*D_NET *5 0.00145069
*CONN
*P diag_done O
*I *2071:X O *D sky130_fd_sc_hd__clkdlybuf4s25_1
*CAP
1 diag_done 0.000266375
2 *2071:X 0.000266375
3 diag_done *2050:A 0.000467677
4 diag_done *2051:A 0.000442037
5 diag_done *466:6 9.60582e-07
6 diag_done *466:23 7.26176e-06
*RES
1 *2071:X diag_done 13.23 
*END

*D_NET *6 0.00107922
*CONN
*P fault_bit[0] O
*I *2097:LO O *D sky130_fd_sc_hd__conb_1
*CAP
1 fault_bit[0] 0.00035423
2 *2097:LO 0.00035423
3 fault_bit[0] fault_location[1] 0.000362345
4 fault_bit[0] y[6] 8.41015e-06
*RES
1 *2097:LO fault_bit[0] 6.7783 
*END

*D_NET *7 0.0010236
*CONN
*P fault_bit[1] O
*I *2098:LO O *D sky130_fd_sc_hd__conb_1
*CAP
1 fault_bit[1] 0.000334469
2 *2098:LO 0.000334469
3 fault_bit[1] fault_vector[2] 0.00035466
*RES
1 *2098:LO fault_bit[1] 6.64337 
*END

*D_NET *8 0.00109644
*CONN
*P fault_bit[2] O
*I *2099:LO O *D sky130_fd_sc_hd__conb_1
*CAP
1 fault_bit[2] 0.000345344
2 *2099:LO 0.000345344
3 fault_bit[2] fault_location[0] 0
4 fault_bit[2] fault_type 0.000405751
5 fault_bit[2] *2067:A 0
*RES
1 *2099:LO fault_bit[2] 9.43223 
*END

*D_NET *9 0.00112237
*CONN
*P fault_detected O
*I *2100:LO O *D sky130_fd_sc_hd__conb_1
*CAP
1 fault_detected 0.000196855
2 *2100:LO 0.000196855
3 fault_detected fault_location[1] 0.000359196
4 fault_detected fault_vector[3] 0.000369464
*RES
1 *2100:LO fault_detected 6.2683 
*END

*D_NET *10 0.00107105
*CONN
*P fault_location[0] O
*I *2101:LO O *D sky130_fd_sc_hd__conb_1
*CAP
1 fault_location[0] 0.000349715
2 *2101:LO 0.000349715
3 fault_location[0] fault_type 0.000110301
4 fault_location[0] fault_vector[2] 0.000261319
5 fault_bit[2] fault_location[0] 0
*RES
1 *2101:LO fault_location[0] 9.4957 
*END

*D_NET *11 0.00135963
*CONN
*P fault_location[1] O
*I *2102:LO O *D sky130_fd_sc_hd__conb_1
*CAP
1 fault_location[1] 0.000291668
2 *2102:LO 0.000291668
3 fault_location[1] fault_vector[3] 5.47469e-05
4 fault_bit[0] fault_location[1] 0.000362345
5 fault_detected fault_location[1] 0.000359196
*RES
1 *2102:LO fault_location[1] 6.04963 
*END

*D_NET *12 0.0012026
*CONN
*P fault_type O
*I *2103:LO O *D sky130_fd_sc_hd__conb_1
*CAP
1 fault_type 0.000311992
2 *2103:LO 0.000311992
3 fault_type fault_vector[2] 6.25644e-05
4 fault_bit[2] fault_type 0.000405751
5 fault_location[0] fault_type 0.000110301
*RES
1 *2103:LO fault_type 8.84203 
*END

*D_NET *13 0.00126593
*CONN
*P fault_vector[0] O
*I *2104:LO O *D sky130_fd_sc_hd__conb_1
*CAP
1 fault_vector[0] 0.00039945
2 *2104:LO 0.00039945
3 fault_vector[0] fault_vector[1] 0.000467034
*RES
1 *2104:LO fault_vector[0] 13.395 
*END

*D_NET *14 0.00122016
*CONN
*P fault_vector[1] O
*I *2105:LO O *D sky130_fd_sc_hd__conb_1
*CAP
1 fault_vector[1] 0.000376563
2 *2105:LO 0.000376563
3 fault_vector[0] fault_vector[1] 0.000467034
*RES
1 *2105:LO fault_vector[1] 13.05 
*END

*D_NET *15 0.00135742
*CONN
*P fault_vector[2] O
*I *2106:LO O *D sky130_fd_sc_hd__conb_1
*CAP
1 fault_vector[2] 0.000339438
2 *2106:LO 0.000339438
3 fault_bit[1] fault_vector[2] 0.00035466
4 fault_location[0] fault_vector[2] 0.000261319
5 fault_type fault_vector[2] 6.25644e-05
*RES
1 *2106:LO fault_vector[2] 8.79357 
*END

*D_NET *16 0.00108855
*CONN
*P fault_vector[3] O
*I *2107:LO O *D sky130_fd_sc_hd__conb_1
*CAP
1 fault_vector[3] 0.000332168
2 *2107:LO 0.000332168
3 fault_detected fault_vector[3] 0.000369464
4 fault_location[1] fault_vector[3] 5.47469e-05
*RES
1 *2107:LO fault_vector[3] 5.53963 
*END

*D_NET *17 0.000890585
*CONN
*P h0[0] I
*I *2048:A I *D sky130_fd_sc_hd__buf_6
*CAP
1 h0[0] 0.000445292
2 *2048:A 0.000445292
*RES
1 h0[0] *2048:A 10.6692 
*END

*D_NET *18 0.000949182
*CONN
*P h0[1] I
*I *2059:A I *D sky130_fd_sc_hd__buf_12
*CAP
1 h0[1] 0.000425104
2 *2059:A 0.000425104
3 *2059:A *2063:A 4.78735e-05
4 *2059:A *2065:A 5.11015e-05
*RES
1 h0[1] *2059:A 10.8342 
*END

*D_NET *19 0.00119476
*CONN
*P h0[2] I
*I *2063:A I *D sky130_fd_sc_hd__dlymetal6s2s_1
*CAP
1 h0[2] 0.000561682
2 *2063:A 0.000561682
3 *2063:A *2064:A 0
4 *2063:A *2065:A 2.35256e-05
5 *2063:A *440:86 0
6 *2059:A *2063:A 4.78735e-05
*RES
1 h0[2] *2063:A 7.76663 
*END

*D_NET *20 0.00136813
*CONN
*P h0[3] I
*I *2064:A I *D sky130_fd_sc_hd__clkdlybuf4s25_1
*CAP
1 h0[3] 0.000567329
2 *2064:A 0.000567329
3 *2064:A *2066:A 0.000175583
4 *2064:A *311:12 5.78853e-05
5 *2064:A *440:86 0
6 *2064:A *440:99 0
7 *2063:A *2064:A 0
*RES
1 h0[3] *2064:A 10.0616 
*END

*D_NET *21 0.000877735
*CONN
*P h1[0] I
*I *2065:A I *D sky130_fd_sc_hd__clkbuf_2
*CAP
1 h1[0] 0.000401554
2 *2065:A 0.000401554
3 *2059:A *2065:A 5.11015e-05
4 *2063:A *2065:A 2.35256e-05
*RES
1 h1[0] *2065:A 9.5857 
*END

*D_NET *22 0.0015308
*CONN
*P h1[1] I
*I *2066:A I *D sky130_fd_sc_hd__clkbuf_2
*CAP
1 h1[1] 0.000628532
2 *2066:A 0.000628532
3 *2066:A *1834:A 0
4 *2066:A *1885:A 0
5 *2066:A *2067:A 0
6 *2066:A *311:12 9.8153e-05
7 *2064:A *2066:A 0.000175583
*RES
1 h1[1] *2066:A 11.1399 
*END

*D_NET *23 0.000811932
*CONN
*P h1[2] I
*I *2067:A I *D sky130_fd_sc_hd__dlymetal6s2s_1
*CAP
1 h1[2] 0.000405966
2 *2067:A 0.000405966
3 fault_bit[2] *2067:A 0
4 *2066:A *2067:A 0
*RES
1 h1[2] *2067:A 8.92223 
*END

*D_NET *24 0.00121505
*CONN
*P h1[3] I
*I *2068:A I *D sky130_fd_sc_hd__clkdlybuf4s25_1
*CAP
1 h1[3] 0.000596969
2 *2068:A 0.000596969
3 *2068:A *514:10 2.11084e-05
*RES
1 h1[3] *2068:A 14.2575 
*END

*D_NET *25 0.00122016
*CONN
*P h2[0] I
*I *2069:A I *D sky130_fd_sc_hd__clkdlybuf4s25_1
*CAP
1 h2[0] 0.000376563
2 *2069:A 0.000376563
3 *2069:A y[0] 0.000467034
*RES
1 h2[0] *2069:A 13.05 
*END

*D_NET *26 0.00176689
*CONN
*P h2[1] I
*I *2049:A I *D sky130_fd_sc_hd__dlymetal6s4s_1
*CAP
1 h2[1] 0.000513402
2 *2049:A 0.000513402
3 *2049:A y[0] 0.000542337
4 *2049:A *1731:B1 0
5 *2049:A *124:10 0
6 *2049:A *447:43 0.000139252
7 *2049:A *465:12 0
8 *2049:A *519:10 5.4256e-05
9 *2049:A *519:38 4.24292e-06
*RES
1 h2[1] *2049:A 16.68 
*END

*D_NET *27 0.00132524
*CONN
*P h2[2] I
*I *2050:A I *D sky130_fd_sc_hd__clkdlybuf4s25_1
*CAP
1 h2[2] 0.000403406
2 *2050:A 0.000403406
3 *2050:A *2051:A 0
4 *2050:A *2071:A 0
5 *2050:A *466:23 5.0751e-05
6 diag_done *2050:A 0.000467677
*RES
1 h2[2] *2050:A 13.74 
*END

*D_NET *28 0.00133989
*CONN
*P h2[3] I
*I *2051:A I *D sky130_fd_sc_hd__clkdlybuf4s25_1
*CAP
1 h2[3] 0.000428405
2 *2051:A 0.000428405
3 *2051:A *466:6 4.10476e-05
4 diag_done *2051:A 0.000442037
5 *2050:A *2051:A 0
*RES
1 h2[3] *2051:A 13.845 
*END

*D_NET *29 0.00173908
*CONN
*P h3[0] I
*I *2052:A I *D sky130_fd_sc_hd__clkbuf_2
*CAP
1 h3[0] 0.000517959
2 *2052:A 0.000517959
3 *2052:A y[2] 0.000527581
4 *2052:A y[3] 0
5 *2052:A *1866:B 0.000175583
6 *2052:A *227:8 0
*RES
1 h3[0] *2052:A 7.61597 
*END

*D_NET *30 0.000880117
*CONN
*P h3[1] I
*I *2053:A I *D sky130_fd_sc_hd__clkbuf_2
*CAP
1 h3[1] 0.000335059
2 *2053:A 0.000335059
3 *2053:A y[3] 0.00021
4 *2053:A *1866:B 0
*RES
1 h3[1] *2053:A 6.07157 
*END

*D_NET *31 0.000832668
*CONN
*P h3[2] I
*I *2054:A I *D sky130_fd_sc_hd__dlymetal6s4s_1
*CAP
1 h3[2] 0.000416334
2 *2054:A 0.000416334
3 *2054:A y[4] 0
4 *2054:A *294:12 0
*RES
1 h3[2] *2054:A 6.2683 
*END

*D_NET *32 0.00177534
*CONN
*P h3[3] I
*I *2055:A I *D sky130_fd_sc_hd__clkdlybuf4s25_1
*CAP
1 h3[3] 0.000572076
2 *2055:A 0.000572076
3 *2055:A y[9] 0.000503785
4 *2055:A *1937:A2 7.81954e-05
5 *2055:A *1937:B1 0
6 *2055:A *470:10 4.92062e-05
*RES
1 h3[3] *2055:A 16.8975 
*END

*D_NET *33 0.00142743
*CONN
*P rst I
*I *2056:A I *D sky130_fd_sc_hd__clkdlybuf4s25_1
*CAP
1 rst 0.00061286
2 *2056:A 0.00061286
3 *2056:A *2057:A 0.000201713
4 *2056:A *491:91 0
5 *2056:A *491:100 0
*RES
1 rst *2056:A 12.7155 
*END

*D_NET *34 0.00131968
*CONN
*P start_diag I
*I *2057:A I *D sky130_fd_sc_hd__clkdlybuf4s25_1
*CAP
1 start_diag 0.000558981
2 *2057:A 0.000558981
3 *2057:A *423:12 0
4 *2056:A *2057:A 0.000201713
5 *3:34 *2057:A 0
*RES
1 start_diag *2057:A 11.6638 
*END

*D_NET *35 0.00209944
*CONN
*P x[0] I
*I *2058:A I *D sky130_fd_sc_hd__clkdlybuf4s25_1
*CAP
1 x[0] 0.000976676
2 *2058:A 0.000976676
3 *2058:A *1983:D 2.04993e-05
4 *2058:A *2060:A 5.22519e-05
5 *2058:A *2061:A 0
6 *2058:A *491:106 0
7 *3:34 *2058:A 7.33412e-05
*RES
1 x[0] *2058:A 14.0003 
*END

*D_NET *36 0.00158521
*CONN
*P x[1] I
*I *2060:A I *D sky130_fd_sc_hd__clkdlybuf4s25_1
*CAP
1 x[1] 0.000719035
2 *2060:A 0.000719035
3 *2060:A *2061:A 9.48869e-05
4 *2058:A *2060:A 5.22519e-05
*RES
1 x[1] *2060:A 15.8707 
*END

*D_NET *37 0.00181273
*CONN
*P x[2] I
*I *2061:A I *D sky130_fd_sc_hd__clkdlybuf4s25_1
*CAP
1 x[2] 0.000704757
2 *2061:A 0.000704757
3 *2061:A *1954:B 6.93017e-05
4 *2061:A *1961:A1 0
5 *2061:A *1963:A_N 3.85204e-05
6 diag_busy *2061:A 0.000200509
7 *2058:A *2061:A 0
8 *2060:A *2061:A 9.48869e-05
*RES
1 x[2] *2061:A 6.28737 
*END

*D_NET *38 0.00179895
*CONN
*P x[3] I
*I *2062:A I *D sky130_fd_sc_hd__clkdlybuf4s25_1
*CAP
1 x[3] 0.000527934
2 *2062:A 0.000527934
3 *2062:A *1985:D 2.77283e-05
4 *2062:A *2022:A 2.69203e-05
5 *2062:A *492:8 0.000315527
6 diag_busy *2062:A 0.000372903
*RES
1 x[3] *2062:A 11.0534 
*END

*D_NET *39 0.0016166
*CONN
*P y[0] O
*I *2072:X O *D sky130_fd_sc_hd__clkdlybuf4s25_1
*CAP
1 y[0] 0.000279467
2 *2072:X 0.000279467
3 y[0] *209:6 4.82919e-05
4 y[0] *465:12 0
5 *2049:A y[0] 0.000542337
6 *2069:A y[0] 0.000467034
*RES
1 *2072:X y[0] 14.58 
*END

*D_NET *40 0.0013342
*CONN
*P y[1] O
*I *2073:X O *D sky130_fd_sc_hd__clkdlybuf4s25_1
*CAP
1 y[1] 0.00048398
2 *2073:X 0.00048398
3 y[1] y[2] 0.000366244
4 y[1] *1866:B 0
5 y[1] *2073:A 0
*RES
1 *2073:X y[1] 8.8183 
*END

*D_NET *41 0.00159682
*CONN
*P y[2] O
*I *2074:X O *D sky130_fd_sc_hd__dlymetal6s2s_1
*CAP
1 y[2] 0.000318133
2 *2074:X 0.000318133
3 y[2] *1866:B 6.67235e-05
4 y[1] y[2] 0.000366244
5 *2052:A y[2] 0.000527581
*RES
1 *2074:X y[2] 6.22443 
*END

*D_NET *42 0.000950366
*CONN
*P y[3] O
*I *2075:X O *D sky130_fd_sc_hd__buf_6
*CAP
1 y[3] 0.000370183
2 *2075:X 0.000370183
3 y[3] *2075:A 0
4 *2052:A y[3] 0
5 *2053:A y[3] 0.00021
*RES
1 *2075:X y[3] 6.1881 
*END

*D_NET *43 0.00249071
*CONN
*P y[4] O
*I *2076:X O *D sky130_fd_sc_hd__buf_6
*CAP
1 y[4] 0.00105194
2 *2076:X 0.00105194
3 y[4] *1744:B 8.6099e-05
4 y[4] *1814:B 0.000140912
5 y[4] *1866:B 0
6 y[4] *2076:A 0
7 y[4] *206:16 0.000103192
8 y[4] *241:8 5.66208e-05
9 y[4] *291:10 0
10 *2054:A y[4] 0
*RES
1 *2076:X y[4] 10.9673 
*END

*D_NET *44 0.0011506
*CONN
*P y[5] O
*I *2077:X O *D sky130_fd_sc_hd__buf_6
*CAP
1 y[5] 0.000575301
2 *2077:X 0.000575301
*RES
1 *2077:X y[5] 12.9958 
*END

*D_NET *45 0.00180419
*CONN
*P y[6] O
*I *2078:X O *D sky130_fd_sc_hd__buf_6
*CAP
1 y[6] 0.000749976
2 *2078:X 0.000749976
3 y[6] *2078:A 0.00029583
4 fault_bit[0] y[6] 8.41015e-06
*RES
1 *2078:X y[6] 13.1118 
*END

*D_NET *46 0.00118896
*CONN
*P y[7] O
*I *2079:X O *D sky130_fd_sc_hd__buf_6
*CAP
1 y[7] 0.000594479
2 *2079:X 0.000594479
*RES
1 *2079:X y[7] 14.0025 
*END

*D_NET *47 0.00145264
*CONN
*P y[8] O
*I *2080:X O *D sky130_fd_sc_hd__buf_6
*CAP
1 y[8] 0.000655281
2 *2080:X 0.000655281
3 y[8] *1937:A1 9.21168e-05
4 y[8] *2080:A 4.99619e-05
*RES
1 *2080:X y[8] 15.3825 
*END

*D_NET *48 0.00175521
*CONN
*P y[9] O
*I *2081:X O *D sky130_fd_sc_hd__buf_6
*CAP
1 y[9] 0.000550775
2 *2081:X 0.000550775
3 y[9] *1937:A1 6.32842e-05
4 y[9] *2081:A 8.65905e-05
5 *2055:A y[9] 0.000503785
*RES
1 *2081:X y[9] 15.8325 
*END

*D_NET *49 0.000409012
*CONN
*I *2002:D I *D sky130_fd_sc_hd__dfxtp_2
*I *1949:X O *D sky130_fd_sc_hd__and2_2
*CAP
1 *2002:D 0.000111126
2 *1949:X 0.000111126
3 *2002:D *2002:CLK 3.60024e-06
4 *2002:D *2008:D 0.000135382
5 *2002:D *2027:A 4.77769e-05
*RES
1 *1949:X *2002:D 9.42375 
*END

*D_NET *50 0.00091723
*CONN
*I *2003:D I *D sky130_fd_sc_hd__dfxtp_2
*I *1948:X O *D sky130_fd_sc_hd__and2_2
*CAP
1 *2003:D 0.000219427
2 *1948:X 0.000219427
3 *2003:D *1948:B 0.00025266
4 *2003:D *2045:A 0.000137017
5 *2003:D *416:25 1.45248e-05
6 *2003:D *491:31 6.60261e-06
7 *2003:D *491:35 6.75709e-05
*RES
1 *1948:X *2003:D 12.1838 
*END

*D_NET *51 0.000707546
*CONN
*I *2004:D I *D sky130_fd_sc_hd__dfxtp_2
*I *1947:X O *D sky130_fd_sc_hd__and2_2
*CAP
1 *2004:D 0.000163108
2 *1947:X 0.000163108
3 *2004:D *1965:A0 0
4 *2004:D *419:18 0.000243554
5 *2004:D *491:16 0.000137777
*RES
1 *1947:X *2004:D 11.0437 
*END

*D_NET *52 0.000268729
*CONN
*I *2005:D I *D sky130_fd_sc_hd__dfxtp_2
*I *1946:X O *D sky130_fd_sc_hd__and2_2
*CAP
1 *2005:D 8.74722e-05
2 *1946:X 8.74722e-05
3 *2005:D *526:10 9.37846e-05
*RES
1 *1946:X *2005:D 8.80875 
*END

*D_NET *53 0.00129392
*CONN
*I *2006:D I *D sky130_fd_sc_hd__dfxtp_2
*I *1945:X O *D sky130_fd_sc_hd__and2_2
*CAP
1 *2006:D 0.000337418
2 *1945:X 0.000337418
3 *2006:D *2009:CLK 0
4 *2006:D *2009:D 4.82863e-05
5 *2006:D *2034:A 0.000149488
6 *2006:D *2040:A 0.000133473
7 *2006:D *421:12 0.000101196
8 *2006:D *421:16 4.82919e-05
9 *2006:D *493:88 0
10 *2006:D *493:94 0.000138351
*RES
1 *1945:X *2006:D 13.5638 
*END

*D_NET *54 0.00590792
*CONN
*I *2007:D I *D sky130_fd_sc_hd__dfxtp_2
*I *1944:X O *D sky130_fd_sc_hd__and2_2
*CAP
1 *2007:D 0.00260802
2 *1944:X 0.00260802
3 *2007:D *1939:B 0
4 *2007:D *1950:A1 0.000152626
5 *2007:D *1950:B1 0.000327703
6 *2007:D *1952:A 7.06476e-05
7 *2007:D *1954:A 0
8 *2007:D *2007:CLK 0.000128642
9 *2007:D *2011:D 0
10 *2007:D *2035:A 1.22505e-05
11 *2007:D *418:81 0
12 *2007:D *419:33 0
13 *3:34 *2007:D 0
*RES
1 *1944:X *2007:D 19.5435 
*END

*D_NET *55 0.00150992
*CONN
*I *2008:D I *D sky130_fd_sc_hd__dfxtp_2
*I *1942:X O *D sky130_fd_sc_hd__and2_2
*CAP
1 *2008:D 0.000502691
2 *1942:X 0.000502691
3 *2008:D *1949:A 0.00017139
4 *2008:D *1956:A1 2.10905e-05
5 *2008:D *1956:A2 8.52972e-05
6 *2008:D *2008:CLK 4.66108e-05
7 *2008:D *410:10 4.04902e-05
8 *2008:D *438:10 4.28112e-06
9 *2002:D *2008:D 0.000135382
*RES
1 *1942:X *2008:D 16.5338 
*END

*D_NET *56 0.00116129
*CONN
*I *2009:D I *D sky130_fd_sc_hd__dfxtp_2
*I *1941:X O *D sky130_fd_sc_hd__and2_2
*CAP
1 *2009:D 0.000299589
2 *1941:X 0.000299589
3 *2009:D *1941:A 0.0001249
4 *2009:D *1953:A 0
5 *2009:D *1967:B 1.43717e-05
6 *2009:D *2009:CLK 4.18603e-06
7 *2009:D *2040:A 0.000167187
8 *2009:D *493:94 0.000203178
9 *2006:D *2009:D 4.82863e-05
*RES
1 *1941:X *2009:D 12.9038 
*END

*D_NET *57 0.000301793
*CONN
*I *2010:D I *D sky130_fd_sc_hd__dfxtp_2
*I *1940:X O *D sky130_fd_sc_hd__and2_2
*CAP
1 *2010:D 8.53006e-05
2 *1940:X 8.53006e-05
3 *2010:D *1940:B 0.00011682
4 *2010:D *1948:B 0
5 *2010:D *419:16 1.43717e-05
*RES
1 *1940:X *2010:D 8.97375 
*END

*D_NET *58 0.00146101
*CONN
*I *2011:D I *D sky130_fd_sc_hd__dfxtp_2
*I *1939:X O *D sky130_fd_sc_hd__and2_2
*CAP
1 *2011:D 0.000552912
2 *1939:X 0.000552912
3 *2011:D *1944:A 5.34747e-05
4 *2011:D *1988:CLK 0.000134762
5 *2011:D *2011:CLK 0.000166951
6 *2011:D *2071:A 0
7 *2007:D *2011:D 0
*RES
1 *1939:X *2011:D 16.3838 
*END

*D_NET *59 0.000456635
*CONN
*I *2012:D I *D sky130_fd_sc_hd__dfxtp_2
*I *1938:X O *D sky130_fd_sc_hd__and2_2
*CAP
1 *2012:D 0.000167027
2 *1938:X 0.000167027
3 *2012:D *2012:CLK 0.000114649
4 *2012:D *2019:A 3.64998e-06
5 *2012:D *448:14 4.28112e-06
*RES
1 *1938:X *2012:D 10.005 
*END

*D_NET *60 0.000299886
*CONN
*I *2035:A I *D sky130_fd_sc_hd__dlygate4sd3_1
*I *1950:X O *D sky130_fd_sc_hd__a211o_2
*CAP
1 *2035:A 0.000101431
2 *1950:X 0.000101431
3 *2035:A *1950:B1 3.48121e-05
4 *2035:A *472:10 4.99619e-05
5 *2007:D *2035:A 1.22505e-05
6 *3:34 *2035:A 0
*RES
1 *1950:X *2035:A 9.03 
*END

*D_NET *61 0.00266441
*CONN
*I *2042:A I *D sky130_fd_sc_hd__dlygate4sd3_1
*I *1951:X O *D sky130_fd_sc_hd__o41a_2
*CAP
1 *2042:A 0.000697245
2 *1951:X 0.000697245
3 *2042:A *1938:B 0.000141467
4 *2042:A *1951:A3 0.000308724
5 *2042:A *1964:C 0.000162311
6 *2042:A *2012:CLK 0
7 *2042:A *425:12 0.000124895
8 *2042:A *425:14 0.000532528
*RES
1 *1951:X *2042:A 21.33 
*END

*D_NET *62 0.0016115
*CONN
*I *1981:D I *D sky130_fd_sc_hd__dfxtp_2
*I *1954:Y O *D sky130_fd_sc_hd__nor2_2
*CAP
1 *1981:D 0.000474194
2 *1954:Y 0.000474194
3 *1981:D *1954:B 0.000147629
4 *1981:D *1961:A0 0.000196699
5 *1981:D *1963:A_N 0.00013475
6 *1981:D *1981:CLK 5.31158e-06
7 *1981:D *478:21 5.17086e-05
8 *1981:D *478:45 4.59022e-06
9 *3:34 *1981:D 0.000122424
*RES
1 *1954:Y *1981:D 15.1912 
*END

*D_NET *63 0.000296811
*CONN
*I *1982:D I *D sky130_fd_sc_hd__dfxtp_2
*I *1956:X O *D sky130_fd_sc_hd__o21a_2
*CAP
1 *1982:D 0.000124515
2 *1956:X 0.000124515
3 *1982:D *1956:A2 4.77807e-05
*RES
1 *1956:X *1982:D 4.91375 
*END

*D_NET *64 0.00219048
*CONN
*I *1983:D I *D sky130_fd_sc_hd__dfxtp_2
*I *1958:X O *D sky130_fd_sc_hd__and2_2
*CAP
1 *1983:D 0.000883089
2 *1958:X 0.000883089
3 *1983:D *1954:B 0.000297772
4 *1983:D *1957:A0 6.22332e-05
5 *1983:D *1958:B 4.37989e-05
6 *2058:A *1983:D 2.04993e-05
*RES
1 *1958:X *1983:D 24.8538 
*END

*D_NET *65 0.00114889
*CONN
*I *1984:D I *D sky130_fd_sc_hd__dfxtp_2
*I *1960:X O *D sky130_fd_sc_hd__and2_2
*CAP
1 *1984:D 0.000295553
2 *1960:X 0.000295553
3 *1984:D *1954:A 5.97306e-05
4 *1984:D *1960:B 2.88357e-05
5 *1984:D *1961:A1 0
6 *1984:D *1962:A 0
7 *1984:D *1962:B 4.70343e-05
8 *1984:D *1963:A_N 9.59594e-05
9 *1984:D *1963:B 0.000148488
10 *1984:D *1984:CLK 0.000160641
11 *1984:D *1986:D 1.70935e-05
*RES
1 *1960:X *1984:D 13.98 
*END

*D_NET *66 0.000709016
*CONN
*I *1985:D I *D sky130_fd_sc_hd__dfxtp_2
*I *1962:X O *D sky130_fd_sc_hd__and2_2
*CAP
1 *1985:D 0.000191262
2 *1962:X 0.000191262
3 *1985:D *1984:CLK 7.89689e-05
4 *1985:D *1985:CLK 7.81954e-05
5 *1985:D *1986:D 0.000141599
6 *1985:D *2070:A 0
7 *2062:A *1985:D 2.77283e-05
*RES
1 *1962:X *1985:D 11.2987 
*END

*D_NET *67 0.00073854
*CONN
*I *1986:D I *D sky130_fd_sc_hd__dfxtp_2
*I *1963:X O *D sky130_fd_sc_hd__and3b_2
*CAP
1 *1986:D 0.000239277
2 *1963:X 0.000239277
3 *1986:D *1962:B 0
4 *1986:D *1963:A_N 0
5 *1986:D *1984:CLK 8.69212e-05
6 *1986:D *2070:A 0
7 *1986:D *420:62 1.43717e-05
8 *1984:D *1986:D 1.70935e-05
9 *1985:D *1986:D 0.000141599
*RES
1 *1963:X *1986:D 12.0337 
*END

*D_NET *68 0.00120918
*CONN
*I *1987:D I *D sky130_fd_sc_hd__dfxtp_2
*I *1966:X O *D sky130_fd_sc_hd__and2_2
*CAP
1 *1987:D 0.000283184
2 *1966:X 0.000283184
3 *1987:D *1954:A 0.000310868
4 *1987:D *1966:B 4.82863e-05
5 *1987:D *1987:CLK 0.000108763
6 *3:34 *1987:D 0.000174893
*RES
1 *1966:X *1987:D 14.235 
*END

*D_NET *69 0.00029115
*CONN
*I *1988:D I *D sky130_fd_sc_hd__dfxtp_2
*I *1967:X O *D sky130_fd_sc_hd__and2_2
*CAP
1 *1988:D 0.000121432
2 *1967:X 0.000121432
3 *1988:D *1988:CLK 4.82863e-05
*RES
1 *1967:X *1988:D 4.91375 
*END

*D_NET *70 0.000637397
*CONN
*I *1989:D I *D sky130_fd_sc_hd__dfxtp_2
*I *1968:X O *D sky130_fd_sc_hd__and2_2
*CAP
1 *1989:D 0.000263328
2 *1968:X 0.000263328
3 *1989:D *2022:A 3.51254e-06
4 *1989:D *2024:A 8.73389e-06
5 *1989:D *416:46 9.84957e-05
6 *1989:D *418:15 0
7 *1989:D *418:47 0
8 *1989:D *438:10 0
9 *1989:D *445:23 0
*RES
1 *1968:X *1989:D 11.6138 
*END

*D_NET *71 0.000398635
*CONN
*I *1990:D I *D sky130_fd_sc_hd__dfxtp_2
*I *1969:X O *D sky130_fd_sc_hd__and2_2
*CAP
1 *1990:D 0.000151956
2 *1969:X 0.000151956
3 *1990:D *1990:CLK 9.47222e-05
*RES
1 *1969:X *1990:D 5.37875 
*END

*D_NET *72 0.000837976
*CONN
*I *1991:D I *D sky130_fd_sc_hd__dfxtp_2
*I *1970:X O *D sky130_fd_sc_hd__and2_2
*CAP
1 *1991:D 0.000310568
2 *1970:X 0.000310568
3 *1991:D *1968:B 7.35729e-05
4 *1991:D *1992:D 0
5 *1991:D *420:8 0.000143266
6 *1991:D *439:19 0
*RES
1 *1970:X *1991:D 12.48 
*END

*D_NET *73 0.00145344
*CONN
*I *1992:D I *D sky130_fd_sc_hd__dfxtp_2
*I *1971:X O *D sky130_fd_sc_hd__and2_2
*CAP
1 *1992:D 0.000464049
2 *1971:X 0.000464049
3 *1992:D *1989:CLK 6.25639e-05
4 *1992:D *1992:CLK 4.82863e-05
5 *1992:D *2022:A 9.0318e-05
6 *1992:D *420:8 0
7 *1992:D *420:10 0
8 *1992:D *420:12 0
9 *1992:D *440:8 7.4027e-05
10 *1992:D *492:34 0.00025015
11 *1991:D *1992:D 0
*RES
1 *1971:X *1992:D 16.6087 
*END

*D_NET *74 0.000672493
*CONN
*I *1993:D I *D sky130_fd_sc_hd__dfxtp_2
*I *1972:X O *D sky130_fd_sc_hd__and2_2
*CAP
1 *1993:D 0.000247549
2 *1972:X 0.000247549
3 *1993:D *1972:A 0
4 *1993:D *1973:A 9.91257e-05
5 *1993:D *1993:CLK 7.82691e-05
6 *1993:D *422:28 0
*RES
1 *1972:X *1993:D 11.04 
*END

*D_NET *75 0.000383751
*CONN
*I *1994:D I *D sky130_fd_sc_hd__dfxtp_2
*I *1973:X O *D sky130_fd_sc_hd__and2_2
*CAP
1 *1994:D 0.000179252
2 *1973:X 0.000179252
3 *1994:D *1973:B 1.08758e-05
4 *1994:D *1994:CLK 1.43717e-05
*RES
1 *1973:X *1994:D 9.51375 
*END

*D_NET *76 0.000625624
*CONN
*I *1995:D I *D sky130_fd_sc_hd__dfxtp_2
*I *1974:X O *D sky130_fd_sc_hd__and2_2
*CAP
1 *1995:D 0.000229725
2 *1974:X 0.000229725
3 *1995:D *418:31 2.97004e-06
4 *1995:D *443:22 0
5 *1995:D *494:23 8.65961e-05
6 *1995:D *494:32 7.66083e-05
*RES
1 *1974:X *1995:D 10.4888 
*END

*D_NET *77 0.000879499
*CONN
*I *1996:D I *D sky130_fd_sc_hd__dfxtp_2
*I *1975:X O *D sky130_fd_sc_hd__and2_2
*CAP
1 *1996:D 0.000342214
2 *1975:X 0.000342214
3 *1996:D *1975:B 9.09508e-05
4 *1996:D *1995:CLK 0
5 *1996:D *1996:CLK 1.43717e-05
6 *1996:D *443:22 8.97486e-05
*RES
1 *1975:X *1996:D 12.0938 
*END

*D_NET *78 0.000340841
*CONN
*I *1997:D I *D sky130_fd_sc_hd__dfxtp_2
*I *1976:X O *D sky130_fd_sc_hd__and2_2
*CAP
1 *1997:D 7.76458e-05
2 *1976:X 7.76458e-05
3 *1997:D *1976:B 9.05535e-05
4 *1997:D *447:16 9.49961e-05
*RES
1 *1976:X *1997:D 9.00375 
*END

*D_NET *79 0.000569655
*CONN
*I *1998:D I *D sky130_fd_sc_hd__dfxtp_2
*I *1977:X O *D sky130_fd_sc_hd__and2_2
*CAP
1 *1998:D 0.000284827
2 *1977:X 0.000284827
3 *1998:D *1679:A3 0
4 *1998:D *1999:D 0
5 *1998:D *155:12 0
*RES
1 *1977:X *1998:D 11.5387 
*END

*D_NET *80 0.00135
*CONN
*I *1999:D I *D sky130_fd_sc_hd__dfxtp_2
*I *1978:X O *D sky130_fd_sc_hd__and2_2
*CAP
1 *1999:D 0.000479946
2 *1978:X 0.000479946
3 *1999:D *1976:A 2.87867e-05
4 *1999:D *1999:CLK 0
5 *1999:D *2000:D 0
6 *1999:D *108:8 3.51254e-06
7 *1999:D *109:14 1.43717e-05
8 *1999:D *422:12 0.000139933
9 *1999:D *422:94 0
10 *1999:D *449:19 0
11 *1999:D *494:45 0.000137968
12 *1999:D *494:47 6.55328e-05
13 *1998:D *1999:D 0
*RES
1 *1978:X *1999:D 16.6238 
*END

*D_NET *81 0.000685894
*CONN
*I *2000:D I *D sky130_fd_sc_hd__dfxtp_2
*I *1979:X O *D sky130_fd_sc_hd__and2_2
*CAP
1 *2000:D 0.000233107
2 *1979:X 0.000233107
3 *2000:D *1999:CLK 4.43871e-06
4 *2000:D *141:14 1.43717e-05
5 *2000:D *155:12 4.82319e-06
6 *2000:D *422:14 5.05521e-05
7 *2000:D *422:24 7.10578e-05
8 *2000:D *422:94 7.44375e-05
9 *1999:D *2000:D 0
*RES
1 *1979:X *2000:D 10.8038 
*END

*D_NET *82 0.00109014
*CONN
*I *1606:A I *D sky130_fd_sc_hd__nand2_2
*I *1706:A1 I *D sky130_fd_sc_hd__a32o_2
*I *1603:X O *D sky130_fd_sc_hd__a22o_2
*CAP
1 *1606:A 2.83889e-05
2 *1706:A1 0.000173448
3 *1603:X 0.000121198
4 *82:8 0.000323035
5 *1706:A1 *1606:B 0.000139231
6 *1706:A1 *1608:A 5.63318e-05
7 *1706:A1 *1611:B 0
8 *1706:A1 *1706:A2 0.000210846
9 *1706:A1 *86:10 3.76596e-05
10 *82:8 *444:31 0
*RES
1 *1603:X *82:8 3.355 
2 *82:8 *1706:A1 10.295 
3 *82:8 *1606:A 2.05 
*END

*D_NET *83 0.00101779
*CONN
*I *1702:A I *D sky130_fd_sc_hd__and3_2
*I *1703:B1 I *D sky130_fd_sc_hd__a21oi_2
*I *1604:X O *D sky130_fd_sc_hd__and4_2
*CAP
1 *1702:A 0
2 *1703:B1 8.30312e-05
3 *1604:X 7.5008e-05
4 *83:12 0.000158039
5 *1703:B1 *1702:B 0.000137571
6 *1703:B1 *181:12 3.00381e-05
7 *1703:B1 *256:14 3.45679e-05
8 *1703:B1 *257:10 5.21627e-05
9 *83:12 *1696:B 0.000159964
10 *83:12 *1702:B 9.54399e-05
11 *83:12 *1702:C 8.23457e-05
12 *83:12 *443:112 6.30165e-05
13 *83:12 *443:126 4.66108e-05
*RES
1 *1604:X *83:12 8.285 
2 *83:12 *1703:B1 8.03 
3 *83:12 *1702:A 1.6 
*END

*D_NET *84 0.00113059
*CONN
*I *1706:A2 I *D sky130_fd_sc_hd__a32o_2
*I *1606:B I *D sky130_fd_sc_hd__nand2_2
*I *1605:Y O *D sky130_fd_sc_hd__nand4_2
*CAP
1 *1706:A2 4.39473e-05
2 *1606:B 6.05341e-05
3 *1605:Y 8.60353e-05
4 *84:10 0.000190517
5 *1606:B *1605:A 3.18219e-05
6 *1606:B *497:71 0
7 *1606:B *497:75 2.97004e-06
8 *1706:A2 *1605:A 5.12017e-06
9 *1706:A2 *1608:B 0.000189426
10 *1706:A2 *86:10 9.50342e-06
11 *84:10 *1605:D 0
12 *84:10 *173:8 0.000160635
13 *1706:A1 *1606:B 0.000139231
14 *1706:A1 *1706:A2 0.000210846
*RES
1 *1605:Y *84:10 5.445 
2 *84:10 *1606:B 5.235 
3 *84:10 *1706:A2 6 
*END

*D_NET *85 0.000362933
*CONN
*I *1608:A I *D sky130_fd_sc_hd__xnor2_2
*I *1606:Y O *D sky130_fd_sc_hd__nand2_2
*CAP
1 *1608:A 6.99243e-05
2 *1606:Y 6.99243e-05
3 *1608:A *1611:B 0.000139238
4 *1608:A *173:8 2.75145e-05
5 *1706:A1 *1608:A 5.63318e-05
*RES
1 *1606:Y *1608:A 9.285 
*END

*D_NET *86 0.000892087
*CONN
*I *1706:A3 I *D sky130_fd_sc_hd__a32o_2
*I *1608:B I *D sky130_fd_sc_hd__xnor2_2
*I *1607:X O *D sky130_fd_sc_hd__and2_2
*CAP
1 *1706:A3 0
2 *1608:B 8.62354e-05
3 *1607:X 0.0001763
4 *86:10 0.000262536
5 *1608:B *1605:A 5.53249e-06
6 *1608:B *443:62 0
7 *1608:B *443:81 0
8 *86:10 *172:10 0.000124895
9 *86:10 *443:81 0
10 *86:10 *506:22 0
11 *1706:A1 *86:10 3.76596e-05
12 *1706:A2 *1608:B 0.000189426
13 *1706:A2 *86:10 9.50342e-06
*RES
1 *1607:X *86:10 6.375 
2 *86:10 *1608:B 5.745 
3 *86:10 *1706:A3 3.6 
*END

*D_NET *87 0.000904608
*CONN
*I *1706:B1 I *D sky130_fd_sc_hd__a32o_2
*I *1611:A I *D sky130_fd_sc_hd__xnor2_2
*I *1608:Y O *D sky130_fd_sc_hd__xnor2_2
*CAP
1 *1706:B1 0.000243279
2 *1611:A 0.000133462
3 *1608:Y 0
4 *87:6 0.000376741
5 *1611:A *1611:B 0
6 *1611:A *2092:A 0
7 *1706:B1 *1611:B 0
8 *1706:B1 *2092:A 0
9 *1706:B1 *88:6 0.000116568
10 *1706:B1 *184:12 3.45588e-05
*RES
1 *1608:Y *87:6 3.6 
2 *87:6 *1611:A 5.745 
3 *87:6 *1706:B1 7.935 
*END

*D_NET *88 0.00118755
*CONN
*I *1706:B2 I *D sky130_fd_sc_hd__a32o_2
*I *1611:B I *D sky130_fd_sc_hd__xnor2_2
*I *1609:X O *D sky130_fd_sc_hd__and4_2
*CAP
1 *1706:B2 0
2 *1611:B 0.000283931
3 *1609:X 0.000181939
4 *88:6 0.00046587
5 *1608:A *1611:B 0.000139238
6 *1611:A *1611:B 0
7 *1706:A1 *1611:B 0
8 *1706:B1 *1611:B 0
9 *1706:B1 *88:6 0.000116568
*RES
1 *1609:X *88:6 4.465 
2 *88:6 *1611:B 10.58 
3 *88:6 *1706:B2 1.6 
*END

*D_NET *89 0.00148326
*CONN
*I *1625:A1 I *D sky130_fd_sc_hd__a22oi_2
*I *1624:A I *D sky130_fd_sc_hd__and4_2
*I *1610:Y O *D sky130_fd_sc_hd__nand4_2
*CAP
1 *1625:A1 0
2 *1624:A 9.31872e-05
3 *1610:Y 0.0003157
4 *89:20 0.000408887
5 *1624:A *1624:B 2.49909e-05
6 *1624:A *1624:C 4.66108e-05
7 *1624:A *442:36 2.75145e-05
8 *1624:A *442:77 0.000158297
9 *1624:A *506:36 0.000159964
10 *89:20 *1624:C 4.82919e-05
11 *89:20 *1625:A2 4.00541e-06
12 *89:20 *1625:B2 3.18055e-05
13 *89:20 *1626:B 3.64998e-06
14 *89:20 *1676:B 9.27255e-06
15 *89:20 *106:29 2.34962e-05
16 *89:20 *443:41 2.94826e-05
17 *89:20 *497:75 7.06865e-05
18 *89:20 *497:81 2.74198e-05
*RES
1 *1610:Y *89:20 10.43 
2 *89:20 *1624:A 8.39 
3 *89:20 *1625:A1 1.6 
*END

*D_NET *90 0.000507994
*CONN
*I *1621:A I *D sky130_fd_sc_hd__xor2_2
*I *1682:A1 I *D sky130_fd_sc_hd__o21bai_2
*I *1611:Y O *D sky130_fd_sc_hd__xnor2_2
*CAP
1 *1621:A 0
2 *1682:A1 9.36211e-05
3 *1611:Y 0.000113236
4 *90:8 0.000206857
5 *1682:A1 *1682:A2 9.428e-05
*RES
1 *1611:Y *90:8 5.49 
2 *90:8 *1682:A1 5.745 
3 *90:8 *1621:A 3.6 
*END

*D_NET *91 0.00336856
*CONN
*I *1624:B I *D sky130_fd_sc_hd__and4_2
*I *1625:B2 I *D sky130_fd_sc_hd__a22oi_2
*I *1620:A I *D sky130_fd_sc_hd__xor2_2
*I *1619:A_N I *D sky130_fd_sc_hd__and2b_2
*I *1612:Y O *D sky130_fd_sc_hd__nand4_2
*CAP
1 *1624:B 0.000111316
2 *1625:B2 0.000312414
3 *1620:A 0.000155241
4 *1619:A_N 0.000128655
5 *1612:Y 0.000205856
6 *91:36 0.000684897
7 *91:21 0.000476635
8 *91:12 0.000394738
9 *1620:A *445:23 0.000186099
10 *1625:B2 *1624:C 0.000118081
11 *1625:B2 *1625:A2 0
12 *1625:B2 *101:8 8.40213e-05
13 *1625:B2 *103:16 0
14 *1625:B2 *443:58 0.000163019
15 *91:12 *1612:A 5.06989e-05
16 *91:12 *1619:B 5.39961e-05
17 *91:12 *445:23 0.000186099
18 *1624:A *1624:B 2.49909e-05
19 *89:20 *1625:B2 3.18055e-05
*RES
1 *1612:Y *91:12 9.92 
2 *91:12 *1619:A_N 3.43 
3 *91:12 *91:21 0.795 
4 *91:21 *1620:A 8.54 
5 *91:21 *91:36 3.9 
6 *91:36 *1625:B2 10.97 
7 *91:36 *1624:B 3.085 
*END

*D_NET *92 0.000425449
*CONN
*I *1615:A I *D sky130_fd_sc_hd__nor2_2
*I *1613:Y O *D sky130_fd_sc_hd__a22oi_2
*CAP
1 *1615:A 8.68479e-05
2 *1613:Y 8.68479e-05
3 *1615:A *93:8 4.66826e-05
4 *1615:A *439:40 5.92849e-05
5 *1615:A *439:49 4.18603e-06
6 *1615:A *513:10 0.000141599
*RES
1 *1613:Y *1615:A 9.63 
*END

*D_NET *93 0.00233578
*CONN
*I *1689:B1 I *D sky130_fd_sc_hd__a21o_4
*I *1688:A I *D sky130_fd_sc_hd__nand3_2
*I *1615:B I *D sky130_fd_sc_hd__nor2_2
*I *1614:X O *D sky130_fd_sc_hd__and4_2
*CAP
1 *1689:B1 0.000369136
2 *1688:A 3.15605e-05
3 *1615:B 0
4 *1614:X 0.000160498
5 *93:19 0.000638056
6 *93:8 0.000397858
7 *1688:A *1617:B 3.64998e-06
8 *1688:A *485:20 1.56428e-05
9 *1689:B1 *1687:A 4.66108e-05
10 *1689:B1 *1688:C 4.82863e-05
11 *1689:B1 *1689:A2 5.20981e-05
12 *1689:B1 *1692:B 8.53113e-06
13 *1689:B1 *166:8 0
14 *1689:B1 *438:69 1.71013e-05
15 *1689:B1 *438:78 5.55616e-05
16 *1689:B1 *439:66 8.49205e-05
17 *93:19 *1616:B 0.000294414
18 *93:19 *94:14 2.75145e-05
19 *93:19 *166:8 0
20 *93:19 *438:69 3.76596e-05
21 *93:19 *439:49 0
22 *93:19 *513:10 0
23 *1615:A *93:8 4.66826e-05
*RES
1 *1614:X *93:8 3.7 
2 *93:8 *1615:B 1.6 
3 *93:8 *93:19 6.98 
4 *93:19 *1688:A 4.05 
5 *93:19 *1689:B1 9.84 
*END

*D_NET *94 0.00149719
*CONN
*I *1617:C I *D sky130_fd_sc_hd__and3_2
*I *1618:A I *D sky130_fd_sc_hd__xnor2_2
*I *1615:Y O *D sky130_fd_sc_hd__nor2_2
*CAP
1 *1617:C 0.000336559
2 *1618:A 0
3 *1615:Y 0.00024039
4 *94:14 0.000576949
5 *1617:C *1617:B 3.26519e-06
6 *1617:C *96:10 8.52845e-05
7 *94:14 *1618:B 0.000112907
8 *94:14 *438:69 0.000114326
9 *93:19 *94:14 2.75145e-05
*RES
1 *1615:Y *94:14 9.26 
2 *94:14 *1618:A 1.6 
3 *94:14 *1617:C 10.88 
*END

*D_NET *95 0.000390815
*CONN
*I *1618:B I *D sky130_fd_sc_hd__xnor2_2
*I *1616:Y O *D sky130_fd_sc_hd__nand2_2
*CAP
1 *1618:B 0.000126748
2 *1616:Y 0.000126748
3 *1618:B *438:69 2.44112e-05
4 *94:14 *1618:B 0.000112907
*RES
1 *1616:Y *1618:B 9.54 
*END

*D_NET *96 0.00144086
*CONN
*I *1693:B1 I *D sky130_fd_sc_hd__a21o_4
*I *1692:A I *D sky130_fd_sc_hd__nand3_2
*I *1617:X O *D sky130_fd_sc_hd__and3_2
*CAP
1 *1693:B1 0.000278028
2 *1692:A 0
3 *1617:X 0.000214113
4 *96:10 0.000492142
5 *1693:B1 *1693:A1 6.8338e-05
6 *1693:B1 *170:14 0.000163019
7 *1693:B1 *243:14 0.00013994
8 *1617:C *96:10 8.52845e-05
*RES
1 *1617:X *96:10 6.465 
2 *96:10 *1692:A 3.6 
3 *96:10 *1693:B1 8.925 
*END

*D_NET *97 0.000590129
*CONN
*I *1619:B I *D sky130_fd_sc_hd__and2b_2
*I *1620:B I *D sky130_fd_sc_hd__xor2_2
*I *1618:Y O *D sky130_fd_sc_hd__xnor2_2
*CAP
1 *1619:B 9.99129e-05
2 *1620:B 0.000198524
3 *1618:Y 9.86107e-05
4 *1619:B *98:8 0.00011852
5 *1619:B *445:23 2.05661e-05
6 *91:12 *1619:B 5.39961e-05
*RES
1 *1618:Y *1620:B 3.0325 
2 *1620:B *1619:B 8 
*END

*D_NET *98 0.00204274
*CONN
*I *1694:A I *D sky130_fd_sc_hd__nand3_2
*I *1766:A1 I *D sky130_fd_sc_hd__a21bo_4
*I *1695:B1 I *D sky130_fd_sc_hd__a21o_4
*I *1619:X O *D sky130_fd_sc_hd__and2b_2
*CAP
1 *1694:A 0.000137443
2 *1766:A1 0
3 *1695:B1 5.66458e-05
4 *1619:X 0.000198439
5 *98:19 0.000206564
6 *98:8 0.000324205
7 *1694:A *1694:B 5.92191e-05
8 *1694:A *1694:C 1.34594e-05
9 *1694:A *172:10 4.82863e-05
10 *1694:A *445:23 0.000118513
11 *98:8 *445:23 0.00047601
12 *98:19 *1694:B 4.43871e-06
13 *98:19 *1695:A1 6.52906e-05
14 *98:19 *171:10 7.21296e-06
15 *98:19 *445:23 0.000208491
16 *1619:B *98:8 0.00011852
*RES
1 *1619:X *98:8 9.06 
2 *98:8 *1695:B1 4.395 
3 *98:8 *98:19 2.4 
4 *98:19 *1766:A1 3.6 
5 *98:19 *1694:A 6.39 
*END

*D_NET *99 0.00178502
*CONN
*I *1682:A2 I *D sky130_fd_sc_hd__o21bai_2
*I *1621:B I *D sky130_fd_sc_hd__xor2_2
*I *1620:X O *D sky130_fd_sc_hd__xor2_2
*CAP
1 *1682:A2 7.95754e-05
2 *1621:B 0.000845368
3 *1620:X 0.000765793
4 *1682:A2 *100:8 0
5 *1682:A1 *1682:A2 9.428e-05
*RES
1 *1620:X *1621:B 12.6925 
2 *1621:B *1682:A2 7.49 
*END

*D_NET *100 0.00132684
*CONN
*I *1629:B1 I *D sky130_fd_sc_hd__o21a_2
*I *1630:A I *D sky130_fd_sc_hd__nor3_2
*I *1621:X O *D sky130_fd_sc_hd__xor2_2
*CAP
1 *1629:B1 0.000107095
2 *1630:A 5.34462e-05
3 *1621:X 0.000216724
4 *100:8 0.000377265
5 *1629:B1 *1630:B 1.61831e-05
6 *1629:B1 *1630:C 0.000145184
7 *1629:B1 *1999:CLK 4.66108e-05
8 *1629:B1 *108:8 0.000278111
9 *1630:A *1999:CLK 7.92083e-05
10 *1630:A *109:14 7.00889e-06
11 *100:8 *160:10 0
12 *1682:A2 *100:8 0
*RES
1 *1621:X *100:8 7.02 
2 *100:8 *1630:A 4.665 
3 *100:8 *1629:B1 7.17 
*END

*D_NET *101 0.00115248
*CONN
*I *1624:C I *D sky130_fd_sc_hd__and4_2
*I *1625:A2 I *D sky130_fd_sc_hd__a22oi_2
*I *1622:X O *D sky130_fd_sc_hd__a22o_2
*CAP
1 *1624:C 7.99162e-05
2 *1625:A2 1.60636e-05
3 *1622:X 7.11048e-05
4 *101:8 0.000167085
5 *1624:C *1624:D 0.000185405
6 *1624:C *442:36 9.80943e-06
7 *1624:C *442:77 0.000183738
8 *101:8 *442:36 1.34503e-05
9 *101:8 *443:58 0.000124895
10 *1624:A *1624:C 4.66108e-05
11 *1625:B2 *1624:C 0.000118081
12 *1625:B2 *1625:A2 0
13 *1625:B2 *101:8 8.40213e-05
14 *89:20 *1624:C 4.82919e-05
15 *89:20 *1625:A2 4.00541e-06
*RES
1 *1622:X *101:8 3.445 
2 *101:8 *1625:A2 1.96 
3 *101:8 *1624:C 8.885 
*END

*D_NET *102 0.00322355
*CONN
*I *1624:D I *D sky130_fd_sc_hd__and4_2
*I *1625:B1 I *D sky130_fd_sc_hd__a22oi_2
*I *1623:X O *D sky130_fd_sc_hd__a22o_2
*CAP
1 *1624:D 4.823e-05
2 *1625:B1 0
3 *1623:X 0.000762468
4 *102:10 0.000810698
5 *1624:D *442:77 6.34101e-06
6 *1624:D *444:31 0.000210151
7 *102:10 *1627:A 0.000349587
8 *102:10 *1676:B 0.000309607
9 *102:10 *1968:B 0.000108561
10 *102:10 *442:32 5.42825e-05
11 *102:10 *442:77 2.86623e-05
12 *102:10 *443:22 7.1009e-05
13 *102:10 *444:31 0.000223019
14 *102:10 *497:81 5.55258e-05
15 *1624:C *1624:D 0.000185405
*RES
1 *1623:X *102:10 14.985 
2 *102:10 *1625:B1 3.6 
3 *102:10 *1624:D 6 
*END

*D_NET *103 0.00197252
*CONN
*I *1626:A I *D sky130_fd_sc_hd__nor2_2
*I *1630:B I *D sky130_fd_sc_hd__nor3_2
*I *1629:A1 I *D sky130_fd_sc_hd__o21a_2
*I *1624:X O *D sky130_fd_sc_hd__and4_2
*CAP
1 *1626:A 0
2 *1630:B 0.000205373
3 *1629:A1 2.08101e-05
4 *1624:X 0.000353202
5 *103:16 0.000437517
6 *103:12 0.000564535
7 *1629:A1 *1626:B 0
8 *1630:B *1630:C 0.000316421
9 *103:12 *107:12 0
10 *103:12 *497:75 0
11 *103:16 *1626:B 5.84828e-05
12 *1625:B2 *103:16 0
13 *1629:B1 *1630:B 1.61831e-05
*RES
1 *1624:X *103:12 9.755 
2 *103:12 *103:16 3.225 
3 *103:16 *1629:A1 1.96 
4 *103:16 *1630:B 5.515 
5 *103:12 *1626:A 1.6 
*END

*D_NET *104 0.000450468
*CONN
*I *1626:B I *D sky130_fd_sc_hd__nor2_2
*I *1625:Y O *D sky130_fd_sc_hd__a22oi_2
*CAP
1 *1626:B 0.000194168
2 *1625:Y 0.000194168
3 *1629:A1 *1626:B 0
4 *89:20 *1626:B 3.64998e-06
5 *103:16 *1626:B 5.84828e-05
*RES
1 *1625:Y *1626:B 6.425 
*END

*D_NET *105 0.000558509
*CONN
*I *1661:A I *D sky130_fd_sc_hd__nor2_2
*I *1628:A I *D sky130_fd_sc_hd__and2_2
*I *1626:Y O *D sky130_fd_sc_hd__nor2_2
*CAP
1 *1661:A 0
2 *1628:A 4.25947e-05
3 *1626:Y 0.00010753
4 *105:10 0.000150125
5 *1628:A *1628:B 0.00012657
6 *1628:A *1676:B 0
7 *1628:A *106:29 3.25635e-05
8 *1628:A *155:12 9.91257e-05
9 *105:10 *107:12 0
10 *105:10 *497:75 0
*RES
1 *1626:Y *105:10 6.98 
2 *105:10 *1628:A 3.445 
3 *105:10 *1661:A 1.6 
*END

*D_NET *106 0.00253537
*CONN
*I *1628:B I *D sky130_fd_sc_hd__and2_2
*I *1661:B I *D sky130_fd_sc_hd__nor2_2
*I *1676:A I *D sky130_fd_sc_hd__nor2_2
*I *1627:X O *D sky130_fd_sc_hd__and4_2
*CAP
1 *1628:B 4.3211e-05
2 *1661:B 0
3 *1676:A 0
4 *1627:X 0.000748151
5 *106:29 0.000270431
6 *106:18 0.00097537
7 *1628:B *1662:B 0.00012657
8 *1628:B *155:12 3.23663e-05
9 *106:18 *1622:A1 6.16226e-06
10 *106:18 *418:31 0
11 *106:18 *497:75 1.92979e-05
12 *106:29 *1676:B 4.21662e-05
13 *106:29 *155:12 7.99757e-05
14 *106:29 *497:81 9.03508e-06
15 *1628:A *1628:B 0.00012657
16 *1628:A *106:29 3.25635e-05
17 *89:20 *106:29 2.34962e-05
*RES
1 *1627:X *106:18 8.09353 
2 *106:18 *1676:A 1.6 
3 *106:18 *106:29 4.275 
4 *106:29 *1661:B 1.6 
5 *106:29 *1628:B 3.43 
*END

*D_NET *107 0.00135022
*CONN
*I *1662:A I *D sky130_fd_sc_hd__or2_2
*I *1630:C I *D sky130_fd_sc_hd__nor3_2
*I *1629:A2 I *D sky130_fd_sc_hd__o21a_2
*I *1628:X O *D sky130_fd_sc_hd__and2_2
*CAP
1 *1662:A 0.000132615
2 *1630:C 6.42367e-05
3 *1629:A2 0
4 *1628:X 0
5 *107:12 0.000224195
6 *107:4 0.000292573
7 *1662:A *1662:B 7.66083e-05
8 *1662:A *155:12 1.0124e-05
9 *107:12 *1662:B 8.8266e-05
10 *107:12 *1999:CLK 0
11 *1629:B1 *1630:C 0.000145184
12 *1630:B *1630:C 0.000316421
13 *103:12 *107:12 0
14 *105:10 *107:12 0
*RES
1 *1628:X *107:4 1.6 
2 *107:4 *107:12 6.175 
3 *107:12 *1629:A2 1.6 
4 *107:12 *1630:C 4.465 
5 *107:4 *1662:A 3.445 
*END

*D_NET *108 0.00619393
*CONN
*I *1643:A I *D sky130_fd_sc_hd__nor3_2
*I *1644:A1 I *D sky130_fd_sc_hd__o21a_2
*I *1682:B1_N I *D sky130_fd_sc_hd__o21bai_2
*I *1629:X O *D sky130_fd_sc_hd__o21a_2
*CAP
1 *1643:A 0
2 *1644:A1 0.000121937
3 *1682:B1_N 0.00039027
4 *1629:X 0.000643512
5 *108:27 0.000990391
6 *108:8 0.00190224
7 *1644:A1 *1644:A2 1.88358e-05
8 *1644:A1 *352:13 0.000193331
9 *1682:B1_N *160:10 0.000318091
10 *1682:B1_N *453:10 0
11 *108:8 *1999:CLK 0.000113809
12 *108:8 *109:14 5.09704e-05
13 *108:27 *1641:A 5.05437e-05
14 *108:27 *1644:A2 4.18603e-06
15 *108:27 *1663:A1 2.49909e-05
16 *108:27 *1663:A2 5.05521e-05
17 *108:27 *109:14 0.000614589
18 *108:27 *121:10 0
19 *108:27 *352:13 0.000111096
20 *108:27 *452:10 0.000312964
21 *1629:B1 *108:8 0.000278111
22 *1999:D *108:8 3.51254e-06
*RES
1 *1629:X *108:8 10 
2 *108:8 *1682:B1_N 12.425 
3 *108:8 *108:27 19.685 
4 *108:27 *1644:A1 6.555 
5 *108:27 *1643:A 3.6 
*END

*D_NET *109 0.0046307
*CONN
*I *1643:B I *D sky130_fd_sc_hd__nor3_2
*I *1644:A2 I *D sky130_fd_sc_hd__o21a_2
*I *1630:Y O *D sky130_fd_sc_hd__nor3_2
*CAP
1 *1643:B 0
2 *1644:A2 0.000161478
3 *1630:Y 0.00151886
4 *109:14 0.00168034
5 *1644:A2 *1644:B1 0.00014883
6 *1644:A2 *144:25 4.60584e-05
7 *109:14 *1641:A 8.8266e-05
8 *109:14 *1644:B1 5.53249e-06
9 *109:14 *1663:A1 4.66108e-05
10 *109:14 *1663:A2 8.65961e-05
11 *109:14 *1999:CLK 6.47326e-05
12 *109:14 *121:10 7.34364e-05
13 *1630:A *109:14 7.00889e-06
14 *1644:A1 *1644:A2 1.88358e-05
15 *1999:D *109:14 1.43717e-05
16 *108:8 *109:14 5.09704e-05
17 *108:27 *1644:A2 4.18603e-06
18 *108:27 *109:14 0.000614589
*RES
1 *1630:Y *109:14 27.195 
2 *109:14 *1644:A2 7.14 
3 *109:14 *1643:B 3.6 
*END

*D_NET *110 0.00170164
*CONN
*I *1635:A I *D sky130_fd_sc_hd__or3b_4
*I *2082:A I *D sky130_fd_sc_hd__buf_2
*I *1631:X O *D sky130_fd_sc_hd__and4_2
*CAP
1 *1635:A 1.82451e-05
2 *2082:A 0.000146796
3 *1631:X 0.000215286
4 *110:6 0.000380327
5 *1635:A *1635:B 3.74161e-05
6 *1635:A *1635:C_N 8.49205e-05
7 *1635:A *1637:B 2.05056e-05
8 *2082:A *450:64 0
9 *2082:A *468:8 3.72916e-05
10 *2082:A *496:10 8.06651e-05
11 *110:6 *1631:B 4.16262e-05
12 *110:6 *1635:B 0.000224931
13 *110:6 *1635:C_N 0.000383652
14 *110:6 *113:14 2.41437e-05
15 *110:6 *451:60 5.83121e-06
*RES
1 *1631:X *110:6 6.88 
2 *110:6 *2082:A 8.54 
3 *110:6 *1635:A 2.395 
*END

*D_NET *111 0.00157934
*CONN
*I *1719:A I *D sky130_fd_sc_hd__xnor2_2
*I *1636:A1 I *D sky130_fd_sc_hd__a21bo_2
*I *1632:Y O *D sky130_fd_sc_hd__inv_2
*CAP
1 *1719:A 8.32989e-05
2 *1636:A1 0.000303338
3 *1632:Y 0.000386636
4 *1636:A1 *1635:C_N 5.16348e-05
5 *1636:A1 *112:10 9.50342e-06
6 *1636:A1 *450:64 0.000136877
7 *1636:A1 *467:86 3.47668e-05
8 *1636:A1 *469:8 0.000387896
9 *1719:A *1720:A 0
10 *1719:A *1807:A1 0.00011379
11 *1719:A *188:10 2.49909e-05
12 *1719:A *189:16 4.66108e-05
*RES
1 *1632:Y *1636:A1 12.39 
2 *1632:Y *1719:A 9.03 
*END

*D_NET *112 0.00223195
*CONN
*I *1635:C_N I *D sky130_fd_sc_hd__or3b_4
*I *1636:A2 I *D sky130_fd_sc_hd__a21bo_2
*I *1633:X O *D sky130_fd_sc_hd__a22o_2
*CAP
1 *1635:C_N 0.000355332
2 *1636:A2 0
3 *1633:X 0.000126945
4 *112:10 0.000482277
5 *1635:C_N *1637:B 4.21757e-05
6 *1635:C_N *114:10 6.80171e-05
7 *1635:C_N *114:23 2.31547e-05
8 *1635:C_N *467:86 2.42236e-05
9 *112:10 *1633:A2 6.97034e-05
10 *112:10 *450:64 0.000181204
11 *112:10 *467:60 2.86623e-05
12 *112:10 *467:71 6.36578e-05
13 *112:10 *467:86 3.05373e-05
14 *112:10 *468:8 4.82919e-05
15 *112:10 *468:14 0.00015806
16 *1635:A *1635:C_N 8.49205e-05
17 *1636:A1 *1635:C_N 5.16348e-05
18 *1636:A1 *112:10 9.50342e-06
19 *110:6 *1635:C_N 0.000383652
*RES
1 *1633:X *112:10 7.83 
2 *112:10 *1636:A2 3.6 
3 *112:10 *1635:C_N 10.545 
*END

*D_NET *113 0.00117214
*CONN
*I *1635:B I *D sky130_fd_sc_hd__or3b_4
*I *1636:B1_N I *D sky130_fd_sc_hd__a21bo_2
*I *1634:Y O *D sky130_fd_sc_hd__nand2_2
*CAP
1 *1635:B 5.95682e-05
2 *1636:B1_N 0
3 *1634:Y 0.000169184
4 *113:14 0.000228752
5 *1635:B *1637:B 0.000162311
6 *113:14 *1634:A 4.82863e-05
7 *113:14 *450:64 9.52156e-05
8 *113:14 *469:8 0.000122331
9 *113:14 *496:10 0
10 *1635:A *1635:B 3.74161e-05
11 *110:6 *1635:B 0.000224931
12 *110:6 *113:14 2.41437e-05
*RES
1 *1634:Y *113:14 9.1175 
2 *113:14 *1636:B1_N 1.6 
3 *113:14 *1635:B 3.9925 
*END

*D_NET *114 0.00173978
*CONN
*I *1725:A I *D sky130_fd_sc_hd__xor2_2
*I *1724:A I *D sky130_fd_sc_hd__or3_2
*I *1637:A I *D sky130_fd_sc_hd__and2_2
*I *1635:X O *D sky130_fd_sc_hd__or3b_4
*CAP
1 *1725:A 4.23842e-05
2 *1724:A 0
3 *1637:A 0
4 *1635:X 4.71897e-05
5 *114:23 0.000272498
6 *114:10 0.000277303
7 *1725:A *1725:B 0.000163992
8 *1725:A *1797:B1 1.34361e-05
9 *1725:A *199:8 0.00017688
10 *114:10 *1637:B 0.000131986
11 *114:23 *1637:B 3.23663e-05
12 *114:23 *1723:A 9.54469e-05
13 *114:23 *1723:B 0.000158072
14 *114:23 *1725:B 0.000162332
15 *114:23 *199:8 7.47215e-05
16 *1635:C_N *114:10 6.80171e-05
17 *1635:C_N *114:23 2.31547e-05
*RES
1 *1635:X *114:10 3.46 
2 *114:10 *1637:A 1.6 
3 *114:10 *114:23 7.115 
4 *114:23 *1724:A 3.6 
5 *114:23 *1725:A 5.745 
*END

*D_NET *115 0.000917458
*CONN
*I *1637:B I *D sky130_fd_sc_hd__and2_2
*I *1636:X O *D sky130_fd_sc_hd__a21bo_2
*CAP
1 *1637:B 0.000264057
2 *1636:X 0.000264057
3 *1637:B *1723:B 0
4 *1635:A *1637:B 2.05056e-05
5 *1635:B *1637:B 0.000162311
6 *1635:C_N *1637:B 4.21757e-05
7 *114:10 *1637:B 0.000131986
8 *114:23 *1637:B 3.23663e-05
*RES
1 *1636:X *1637:B 8.15 
*END

*D_NET *116 0.00111207
*CONN
*I *1640:A I *D sky130_fd_sc_hd__nand2_2
*I *1641:A I *D sky130_fd_sc_hd__or2_2
*I *1637:X O *D sky130_fd_sc_hd__and2_2
*CAP
1 *1640:A 6.91325e-05
2 *1641:A 0.000107315
3 *1637:X 5.22595e-05
4 *116:8 0.000228707
5 *1640:A *1642:B 4.66108e-05
6 *1640:A *119:8 0
7 *1640:A *468:8 1.17309e-05
8 *1641:A *1640:B 0
9 *1641:A *1642:B 0.000139238
10 *1641:A *118:19 0
11 *1641:A *352:13 0.00022282
12 *116:8 *352:13 9.54469e-05
13 *116:8 *496:10 0
14 *108:27 *1641:A 5.05437e-05
15 *109:14 *1641:A 8.8266e-05
*RES
1 *1637:X *116:8 4.725 
2 *116:8 *1641:A 7.05 
3 *116:8 *1640:A 4.755 
*END

*D_NET *117 0.000236156
*CONN
*I *1677:A I *D sky130_fd_sc_hd__xnor2_2
*I *1638:Y O *D sky130_fd_sc_hd__nand2_2
*CAP
1 *1677:A 4.59203e-05
2 *1638:Y 4.59203e-05
3 *1677:A *1679:A3 4.18603e-06
4 *1677:A *155:12 5.92849e-05
5 *1677:A *450:19 8.08439e-05
*RES
1 *1638:Y *1677:A 8.835 
*END

*D_NET *118 0.0017576
*CONN
*I *1640:B I *D sky130_fd_sc_hd__nand2_2
*I *1641:B I *D sky130_fd_sc_hd__or2_2
*I *1664:A I *D sky130_fd_sc_hd__or2_2
*I *1639:X O *D sky130_fd_sc_hd__and4_2
*CAP
1 *1640:B 0.0001271
2 *1641:B 0
3 *1664:A 0
4 *1639:X 6.38313e-05
5 *118:19 0.000504753
6 *118:8 0.000441484
7 *1640:B *1642:B 5.63318e-05
8 *118:8 *141:14 0.000174409
9 *118:8 *450:51 4.99619e-05
10 *118:19 *1665:B 2.75229e-05
11 *118:19 *141:14 0.000179219
12 *118:19 *143:6 4.21973e-05
13 *118:19 *144:10 6.19997e-05
14 *118:19 *352:13 0
15 *118:19 *467:10 2.87926e-05
16 *1641:A *1640:B 0
17 *1641:A *118:19 0
*RES
1 *1639:X *118:8 3.445 
2 *118:8 *1664:A 1.6 
3 *118:8 *118:19 8.57 
4 *118:19 *1641:B 3.6 
5 *118:19 *1640:B 6 
*END

*D_NET *119 0.00229872
*CONN
*I *1797:A1 I *D sky130_fd_sc_hd__o21ai_2
*I *1726:A I *D sky130_fd_sc_hd__xnor2_2
*I *1642:A I *D sky130_fd_sc_hd__nand2_2
*I *1640:Y O *D sky130_fd_sc_hd__nand2_2
*CAP
1 *1797:A1 0.000112008
2 *1726:A 5.67315e-05
3 *1642:A 0
4 *1640:Y 7.0784e-05
5 *119:19 0.000672749
6 *119:8 0.000574794
7 *1726:A *1726:B 7.66083e-05
8 *1726:A *1797:A2 4.82919e-05
9 *1726:A *188:10 2.96334e-05
10 *1726:A *189:16 0.000199833
11 *1797:A1 *1728:A2 0
12 *1797:A1 *1797:A2 0.0001032
13 *1797:A1 *1797:B1 0
14 *119:8 *1642:B 8.40269e-05
15 *119:8 *468:8 9.2741e-05
16 *119:19 *1723:A 0
17 *119:19 *1725:B 0
18 *119:19 *1727:A 0
19 *119:19 *1727:B 0
20 *119:19 *1745:A1 0
21 *119:19 *1747:A1 0
22 *119:19 *1797:B1 0
23 *119:19 *121:10 8.65905e-05
24 *119:19 *468:8 9.07251e-05
25 *1640:A *119:8 0
*RES
1 *1640:Y *119:8 3.445 
2 *119:8 *1642:A 1.6 
3 *119:8 *119:19 10.58 
4 *119:19 *1726:A 5.79 
5 *119:19 *1797:A1 6 
*END

*D_NET *120 0.000538417
*CONN
*I *1642:B I *D sky130_fd_sc_hd__nand2_2
*I *1641:X O *D sky130_fd_sc_hd__or2_2
*CAP
1 *1642:B 0.000100108
2 *1641:X 0.000100108
3 *1642:B *468:8 1.19928e-05
4 *1640:A *1642:B 4.66108e-05
5 *1640:B *1642:B 5.63318e-05
6 *1641:A *1642:B 0.000139238
7 *119:8 *1642:B 8.40269e-05
*RES
1 *1641:X *1642:B 9.975 
*END

*D_NET *121 0.00126928
*CONN
*I *1643:C I *D sky130_fd_sc_hd__nor3_2
*I *1644:B1 I *D sky130_fd_sc_hd__o21a_2
*I *1642:Y O *D sky130_fd_sc_hd__nand2_2
*CAP
1 *1643:C 0
2 *1644:B1 0.000122102
3 *1642:Y 0.000208527
4 *121:10 0.000330629
5 *1644:B1 *123:10 5.4256e-05
6 *1644:B1 *144:25 0.000122331
7 *121:10 *1658:B 5.21458e-05
8 *121:10 *1748:B 0
9 *121:10 *123:10 1.43521e-05
10 *121:10 *352:13 0
11 *121:10 *468:8 5.05437e-05
12 *1644:A2 *1644:B1 0.00014883
13 *108:27 *121:10 0
14 *109:14 *1644:B1 5.53249e-06
15 *109:14 *121:10 7.34364e-05
16 *119:19 *121:10 8.65905e-05
*RES
1 *1642:Y *121:10 8.325 
2 *121:10 *1644:B1 6.885 
3 *121:10 *1643:C 3.6 
*END

*D_NET *122 0.00271214
*CONN
*I *1746:A1 I *D sky130_fd_sc_hd__o211a_2
*I *1747:B1 I *D sky130_fd_sc_hd__a211o_4
*I *1660:A1 I *D sky130_fd_sc_hd__o21ai_2
*I *1658:A I *D sky130_fd_sc_hd__or3_4
*I *1643:Y O *D sky130_fd_sc_hd__nor3_2
*CAP
1 *1746:A1 9.95874e-05
2 *1747:B1 0
3 *1660:A1 0.000290375
4 *1658:A 0.000146506
5 *1643:Y 4.412e-05
6 *122:39 0.000365692
7 *122:6 0.000214897
8 *1658:A *1658:B 4.82919e-05
9 *1658:A *1658:C 0.000130241
10 *1658:A *1659:A 0
11 *1658:A *136:8 1.52184e-05
12 *1658:A *137:6 0.000158066
13 *1658:A *137:10 0.00013521
14 *1660:A1 *1660:A2 4.47209e-05
15 *1660:A1 *1660:B1 4.66108e-05
16 *1660:A1 *467:10 0.000112349
17 *1746:A1 *1746:A2 0.000149759
18 *1746:A1 *1746:C1 1.12643e-05
19 *1746:A1 *1747:A1 0
20 *1746:A1 *1748:A_N 7.07722e-05
21 *1746:A1 *1817:B1 1.12643e-05
22 *1746:A1 *138:8 8.53113e-06
23 *122:6 *1660:A2 1.91597e-05
24 *122:6 *1660:B1 8.49205e-05
25 *122:6 *467:10 0.000159741
26 *122:39 *1748:A_N 0.0002014
27 *122:39 *137:10 0
28 *122:39 *138:8 6.73424e-05
29 *122:39 *241:8 0
30 *122:39 *467:10 7.60965e-05
*RES
1 *1643:Y *122:6 3.085 
2 *122:6 *1658:A 9.335 
3 *122:6 *1660:A1 2.74 
4 *1660:A1 *122:39 8.925 
5 *122:39 *1747:B1 3.6 
6 *122:39 *1746:A1 6.04875 
*END

*D_NET *123 0.00166539
*CONN
*I *1658:B I *D sky130_fd_sc_hd__or3_4
*I *1660:A2 I *D sky130_fd_sc_hd__o21ai_2
*I *1644:X O *D sky130_fd_sc_hd__o21a_2
*CAP
1 *1658:B 9.13136e-05
2 *1660:A2 0.000188155
3 *1644:X 0.000166542
4 *123:10 0.000446011
5 *1658:B *1658:C 7.17811e-05
6 *1660:A2 *1660:B1 0.000120655
7 *1660:A2 *467:10 3.23663e-05
8 *123:10 *1658:C 1.64436e-05
9 *123:10 *136:8 0.000136884
10 *123:10 *144:25 0.000162311
11 *1644:B1 *123:10 5.4256e-05
12 *1658:A *1658:B 4.82919e-05
13 *1660:A1 *1660:A2 4.47209e-05
14 *121:10 *1658:B 5.21458e-05
15 *121:10 *123:10 1.43521e-05
16 *122:6 *1660:A2 1.91597e-05
*RES
1 *1644:X *123:10 6.975 
2 *123:10 *1660:A2 6.825 
3 *123:10 *1658:B 5.685 
*END

*D_NET *124 0.00377066
*CONN
*I *1646:C I *D sky130_fd_sc_hd__and3_2
*I *1730:C I *D sky130_fd_sc_hd__and3_2
*I *1752:C I *D sky130_fd_sc_hd__and3_2
*I *1731:B1 I *D sky130_fd_sc_hd__a21oi_2
*I *1645:X O *D sky130_fd_sc_hd__and2_4
*CAP
1 *1646:C 0.000318136
2 *1730:C 0
3 *1752:C 0
4 *1731:B1 0.000149126
5 *1645:X 0
6 *124:34 0.000590505
7 *124:10 0.000368788
8 *124:4 0.000492032
9 *1646:C *1649:B 0
10 *1646:C *1735:A 0
11 *1646:C *2072:A 0.000201393
12 *1646:C *234:30 0.000119756
13 *1646:C *447:69 0.000239813
14 *1646:C *447:80 3.96653e-05
15 *1646:C *465:61 0.000326398
16 *1731:B1 *1731:A1 0.000164874
17 *1731:B1 *1731:A2 0.000140912
18 *1731:B1 *209:6 4.99619e-05
19 *1731:B1 *447:43 2.0514e-05
20 *1731:B1 *465:12 1.34361e-05
21 *124:10 *1731:A2 6.52111e-05
22 *124:10 *229:22 8.44359e-05
23 *124:10 *234:30 8.65961e-05
24 *124:10 *447:37 0
25 *124:10 *447:43 0
26 *124:10 *455:10 0
27 *124:10 *466:38 0
28 *124:34 *234:30 0.000299107
29 *2049:A *1731:B1 0
30 *2049:A *124:10 0
*RES
1 *1645:X *124:4 1.6 
2 *124:4 *124:10 5.705 
3 *124:10 *1731:B1 7.32 
4 *124:10 *1752:C 3.6 
5 *124:4 *124:34 3.93 
6 *124:34 *1730:C 1.6 
7 *124:34 *1646:C 13.415 
*END

*D_NET *125 0.00109363
*CONN
*I *1735:A I *D sky130_fd_sc_hd__and2_2
*I *1647:A I *D sky130_fd_sc_hd__inv_2
*I *1650:A I *D sky130_fd_sc_hd__or3b_4
*I *1646:X O *D sky130_fd_sc_hd__and3_2
*CAP
1 *1735:A 0.000172451
2 *1647:A 0
3 *1650:A 7.20345e-05
4 *1646:X 6.07432e-05
5 *125:19 0.000234094
6 *125:6 0.00019442
7 *1650:A *1649:B 0
8 *1650:A *1651:A1 1.15399e-05
9 *1650:A *126:10 0.000108647
10 *1650:A *208:10 0.000139933
11 *1650:A *234:30 0
12 *1735:A *2086:A 4.82863e-05
13 *1735:A *501:12 2.45442e-05
14 *125:19 *126:10 2.11084e-05
15 *125:19 *501:12 5.83121e-06
16 *1646:C *1735:A 0
*RES
1 *1646:X *125:6 2.395 
2 *125:6 *1650:A 7.745 
3 *125:6 *125:19 1.14 
4 *125:19 *1647:A 1.6 
5 *125:19 *1735:A 4.48 
*END

*D_NET *126 0.00119959
*CONN
*I *1736:A I *D sky130_fd_sc_hd__xnor2_2
*I *1651:A1 I *D sky130_fd_sc_hd__a21bo_2
*I *1647:Y O *D sky130_fd_sc_hd__inv_2
*CAP
1 *1736:A 0.000214967
2 *1651:A1 0.000101997
3 *1647:Y 8.5231e-05
4 *126:10 0.000402195
5 *1651:A1 *1649:B 0
6 *1651:A1 *1650:B 7.36562e-05
7 *1651:A1 *1650:C_N 0
8 *1651:A1 *129:12 4.32126e-05
9 *1651:A1 *234:30 0
10 *1736:A *1650:C_N 4.99619e-05
11 *1736:A *234:30 8.70781e-05
12 *126:10 *234:30 0
13 *1650:A *1651:A1 1.15399e-05
14 *1650:A *126:10 0.000108647
15 *125:19 *126:10 2.11084e-05
*RES
1 *1647:Y *126:10 5.3025 
2 *126:10 *1651:A1 5.8725 
3 *126:10 *1736:A 7.5075 
*END

*D_NET *127 0.00154449
*CONN
*I *1650:C_N I *D sky130_fd_sc_hd__or3b_4
*I *1651:A2 I *D sky130_fd_sc_hd__a21bo_2
*I *1648:X O *D sky130_fd_sc_hd__a22o_2
*CAP
1 *1650:C_N 0.000214224
2 *1651:A2 0
3 *1648:X 0.000202645
4 *127:8 0.000416869
5 *1650:C_N *1651:B1_N 0.000142056
6 *1650:C_N *1652:B 2.75145e-05
7 *1650:C_N *129:12 7.17811e-05
8 *1650:C_N *215:6 2.36527e-05
9 *1650:C_N *234:30 7.75359e-05
10 *127:8 *1649:A 0.000283792
11 *127:8 *1651:B1_N 1.34594e-05
12 *127:8 *215:6 2.10034e-05
13 *1651:A1 *1650:C_N 0
14 *1736:A *1650:C_N 4.99619e-05
*RES
1 *1648:X *127:8 5.515 
2 *127:8 *1651:A2 1.6 
3 *127:8 *1650:C_N 10.37 
*END

*D_NET *128 0.000719461
*CONN
*I *1651:B1_N I *D sky130_fd_sc_hd__a21bo_2
*I *1650:B I *D sky130_fd_sc_hd__or3b_4
*I *1649:Y O *D sky130_fd_sc_hd__nand2_2
*CAP
1 *1651:B1_N 7.20749e-05
2 *1650:B 5.98538e-05
3 *1649:Y 0
4 *128:4 0.000131929
5 *1650:B *1649:B 5.33874e-05
6 *1651:B1_N *1649:A 0
7 *1651:B1_N *215:6 0.000173045
8 *1650:C_N *1651:B1_N 0.000142056
9 *1651:A1 *1650:B 7.36562e-05
10 *127:8 *1651:B1_N 1.34594e-05
*RES
1 *1649:Y *128:4 1.6 
2 *128:4 *1650:B 7.235 
3 *128:4 *1651:B1_N 4.0225 
*END

*D_NET *129 0.00324337
*CONN
*I *1742:B I *D sky130_fd_sc_hd__xor2_4
*I *1741:A I *D sky130_fd_sc_hd__or3_4
*I *1652:A I *D sky130_fd_sc_hd__and2_2
*I *1650:X O *D sky130_fd_sc_hd__or3b_4
*CAP
1 *1742:B 1.34959e-05
2 *1741:A 0.000110846
3 *1652:A 3.43921e-05
4 *1650:X 0.000177123
5 *129:23 0.00088802
6 *129:12 0.000975194
7 *1741:A *1741:B 6.97034e-05
8 *1741:A *1751:B1 0.000135893
9 *1741:A *240:8 0.000157312
10 *1742:B *1751:B1 5.20249e-05
11 *1742:B *1764:B 8.33066e-06
12 *1742:B *240:8 4.22675e-05
13 *129:12 *1652:B 9.23578e-05
14 *129:12 *234:30 4.99619e-05
15 *129:23 *1655:A 2.88357e-05
16 *129:23 *1863:A2 0.00015956
17 *129:23 *1863:B1 7.11365e-05
18 *129:23 *1864:B 1.55253e-05
19 *129:23 *131:8 4.63995e-05
20 *1650:C_N *129:12 7.17811e-05
21 *1651:A1 *129:12 4.32126e-05
*RES
1 *1650:X *129:12 9.215 
2 *129:12 *1652:A 2.215 
3 *129:12 *129:23 13.835 
4 *129:23 *1741:A 6.63 
5 *129:23 *1742:B 4.215 
*END

*D_NET *130 0.000393963
*CONN
*I *1652:B I *D sky130_fd_sc_hd__and2_2
*I *1651:X O *D sky130_fd_sc_hd__a21bo_2
*CAP
1 *1652:B 0.000137045
2 *1651:X 0.000137045
3 *1650:C_N *1652:B 2.75145e-05
4 *129:12 *1652:B 9.23578e-05
*RES
1 *1651:X *1652:B 9.285 
*END

*D_NET *131 0.00132416
*CONN
*I *1655:A I *D sky130_fd_sc_hd__nand2_2
*I *1656:A I *D sky130_fd_sc_hd__or2_2
*I *1652:X O *D sky130_fd_sc_hd__and2_2
*CAP
1 *1655:A 1.79666e-05
2 *1656:A 0.000190693
3 *1652:X 8.49953e-05
4 *131:8 0.000293655
5 *1656:A *1655:B 0.000457264
6 *1656:A *1657:A 7.61616e-05
7 *1656:A *1875:B1 6.29998e-05
8 *1656:A *134:8 5.68401e-05
9 *1656:A *352:13 8.34904e-06
10 *129:23 *1655:A 2.88357e-05
11 *129:23 *131:8 4.63995e-05
*RES
1 *1652:X *131:8 3.1 
2 *131:8 *1656:A 11.315 
3 *131:8 *1655:A 2.05 
*END

*D_NET *132 0.00230977
*CONN
*I *1655:B I *D sky130_fd_sc_hd__nand2_2
*I *1656:B I *D sky130_fd_sc_hd__or2_2
*I *1653:X O *D sky130_fd_sc_hd__and4_2
*CAP
1 *1655:B 0.000254353
2 *1656:B 2.0132e-05
3 *1653:X 0.000519973
4 *132:6 0.000794457
5 *1655:B *352:13 4.83032e-05
6 *132:6 *1666:A1 1.54665e-05
7 *132:6 *1666:A2 1.621e-05
8 *132:6 *1666:B1 2.21074e-05
9 *132:6 *455:60 0.0001615
10 *1656:A *1655:B 0.000457264
*RES
1 *1653:X *132:6 7.915 
2 *132:6 *1656:B 1.96 
3 *132:6 *1655:B 11.51 
*END

*D_NET *133 0.0010872
*CONN
*I *1673:A1 I *D sky130_fd_sc_hd__a21oi_2
*I *1669:A I *D sky130_fd_sc_hd__and3_2
*I *1654:Y O *D sky130_fd_sc_hd__nand4_2
*CAP
1 *1673:A1 0
2 *1669:A 6.12491e-05
3 *1654:Y 0.000278078
4 *133:14 0.000339327
5 *1669:A *1669:B 2.90871e-05
6 *1669:A *1669:C 4.99619e-05
7 *1669:A *147:14 4.21973e-05
8 *1669:A *158:10 0.000198945
9 *133:14 *1654:A 3.70488e-05
10 *133:14 *145:12 0
11 *133:14 *352:13 5.13029e-05
*RES
1 *1654:Y *133:14 9.77 
2 *133:14 *1669:A 3.79 
3 *133:14 *1673:A1 1.6 
*END

*D_NET *134 0.00305587
*CONN
*I *1657:A I *D sky130_fd_sc_hd__nand2_2
*I *1751:A1 I *D sky130_fd_sc_hd__o21ai_4
*I *1743:B I *D sky130_fd_sc_hd__xnor2_2
*I *1655:Y O *D sky130_fd_sc_hd__nand2_2
*CAP
1 *1657:A 0.000326424
2 *1751:A1 0
3 *1743:B 0.000278566
4 *1655:Y 8.67056e-05
5 *134:12 0.000596138
6 *134:8 0.000730702
7 *1657:A *1657:B 0.000191558
8 *1657:A *1874:B1 8.34904e-06
9 *1657:A *1875:B1 0.000105518
10 *1657:A *337:16 8.44308e-05
11 *1657:A *352:13 0
12 *1743:B *1864:B 9.91348e-05
13 *134:8 *1875:B1 9.12494e-06
14 *134:8 *337:16 1.64067e-05
15 *134:12 *1873:A2 0.00019982
16 *134:12 *1874:B1 7.01132e-05
17 *134:12 *228:8 0.000119873
18 *1656:A *1657:A 7.61616e-05
19 *1656:A *134:8 5.68401e-05
*RES
1 *1655:Y *134:8 5.49 
2 *134:8 *134:12 8.315 
3 *134:12 *1743:B 10.265 
4 *134:12 *1751:A1 1.6 
5 *134:8 *1657:A 11.07 
*END

*D_NET *135 0.000449197
*CONN
*I *1657:B I *D sky130_fd_sc_hd__nand2_2
*I *1656:X O *D sky130_fd_sc_hd__or2_2
*CAP
1 *1657:B 0.000128819
2 *1656:X 0.000128819
3 *1657:B *352:13 0
4 *1657:A *1657:B 0.000191558
*RES
1 *1656:X *1657:B 9.885 
*END

*D_NET *136 0.0020354
*CONN
*I *1658:C I *D sky130_fd_sc_hd__or3_4
*I *1660:B1 I *D sky130_fd_sc_hd__o21ai_2
*I *1657:Y O *D sky130_fd_sc_hd__nand2_2
*CAP
1 *1658:C 0.000110133
2 *1660:B1 3.01555e-05
3 *1657:Y 0.000412641
4 *136:8 0.000552929
5 *1658:C *1748:B 0
6 *136:8 *1671:A1 2.24336e-05
7 *136:8 *1674:B 0.000164686
8 *136:8 *137:10 4.62313e-05
9 *136:8 *148:23 7.34364e-05
10 *136:8 *150:12 0
11 *1658:A *1658:C 0.000130241
12 *1658:A *136:8 1.52184e-05
13 *1658:B *1658:C 7.17811e-05
14 *1660:A1 *1660:B1 4.66108e-05
15 *1660:A2 *1660:B1 0.000120655
16 *122:6 *1660:B1 8.49205e-05
17 *123:10 *1658:C 1.64436e-05
18 *123:10 *136:8 0.000136884
*RES
1 *1657:Y *136:8 11.61 
2 *136:8 *1660:B1 4.74 
3 *136:8 *1658:C 6.045 
*END

*D_NET *137 0.00256785
*CONN
*I *1659:A I *D sky130_fd_sc_hd__inv_2
*I *1670:B1 I *D sky130_fd_sc_hd__o211a_2
*I *1671:A1 I *D sky130_fd_sc_hd__a211o_2
*I *1658:X O *D sky130_fd_sc_hd__or3_4
*CAP
1 *1659:A 0.000269061
2 *1670:B1 0.000195295
3 *1671:A1 1.68093e-05
4 *1658:X 0.000213613
5 *137:10 0.000351787
6 *137:6 0.000622356
7 *1659:A *1748:A_N 4.82863e-05
8 *1659:A *1750:B 6.77501e-05
9 *1670:B1 *1670:A1 0.000273872
10 *1670:B1 *241:8 0
11 *1671:A1 *139:10 5.16348e-05
12 *137:10 *139:10 9.54469e-05
13 *1658:A *1659:A 0
14 *1658:A *137:6 0.000158066
15 *1658:A *137:10 0.00013521
16 *122:39 *137:10 0
17 *136:8 *1671:A1 2.24336e-05
18 *136:8 *137:10 4.62313e-05
*RES
1 *1658:X *137:6 4.12 
2 *137:6 *137:10 5.165 
3 *137:10 *1671:A1 4.215 
4 *137:10 *1670:B1 10.735 
5 *137:6 *1659:A 5.875 
*END

*D_NET *138 0.000779913
*CONN
*I *1746:A2 I *D sky130_fd_sc_hd__o211a_2
*I *1747:C1 I *D sky130_fd_sc_hd__a211o_4
*I *1659:Y O *D sky130_fd_sc_hd__inv_2
*CAP
1 *1746:A2 4.60163e-05
2 *1747:C1 2.41635e-05
3 *1659:Y 6.03241e-05
4 *138:8 0.000130504
5 *1746:A2 *1747:A2 0.000159964
6 *1747:C1 *1747:A2 4.82863e-05
7 *138:8 *1747:A2 2.92496e-05
8 *138:8 *241:8 5.57736e-05
9 *1746:A1 *1746:A2 0.000149759
10 *1746:A1 *138:8 8.53113e-06
11 *122:39 *138:8 6.73424e-05
*RES
1 *1659:Y *138:8 5.235 
2 *138:8 *1747:C1 4.05 
3 *138:8 *1746:A2 5.49 
*END

*D_NET *139 0.000671718
*CONN
*I *1670:C1 I *D sky130_fd_sc_hd__o211a_2
*I *1671:A2 I *D sky130_fd_sc_hd__a211o_2
*I *1660:Y O *D sky130_fd_sc_hd__o21ai_2
*CAP
1 *1670:C1 2.11286e-05
2 *1671:A2 0
3 *1660:Y 7.715e-05
4 *139:10 9.82786e-05
5 *1670:C1 *1670:A1 0.000163204
6 *1670:C1 *1670:A2 0.000164874
7 *1671:A1 *139:10 5.16348e-05
8 *137:10 *139:10 9.54469e-05
*RES
1 *1660:Y *139:10 7.235 
2 *139:10 *1671:A2 1.6 
3 *139:10 *1670:C1 3.085 
*END

*D_NET *140 0.000501136
*CONN
*I *1662:B I *D sky130_fd_sc_hd__or2_2
*I *1661:Y O *D sky130_fd_sc_hd__nor2_2
*CAP
1 *1662:B 7.81873e-05
2 *1661:Y 7.81873e-05
3 *1662:B *155:12 5.33172e-05
4 *1628:B *1662:B 0.00012657
5 *1662:A *1662:B 7.66083e-05
6 *107:12 *1662:B 8.8266e-05
*RES
1 *1661:Y *1662:B 5.72 
*END

*D_NET *141 0.00335091
*CONN
*I *1665:A I *D sky130_fd_sc_hd__nor2_2
*I *1667:A I *D sky130_fd_sc_hd__and2_2
*I *1662:X O *D sky130_fd_sc_hd__or2_2
*CAP
1 *1665:A 0
2 *1667:A 0.000107245
3 *1662:X 0.000796292
4 *141:14 0.000903537
5 *1667:A *1667:B 8.97486e-05
6 *141:14 *1639:A 8.88631e-05
7 *141:14 *1639:B 1.19928e-05
8 *141:14 *1665:B 0
9 *141:14 *2000:CLK 4.82863e-05
10 *141:14 *143:6 0.000124895
11 *141:14 *155:12 0.000181611
12 *141:14 *450:38 0.000235568
13 *141:14 *450:51 3.7712e-05
14 *141:14 *453:10 0.000180207
15 *141:14 *467:10 0.000176956
16 *2000:D *141:14 1.43717e-05
17 *118:8 *141:14 0.000174409
18 *118:19 *141:14 0.000179219
*RES
1 *1662:X *141:14 19.105 
2 *141:14 *1667:A 7.745 
3 *141:14 *1665:A 1.6 
*END

*D_NET *142 0.000335382
*CONN
*I *1664:B I *D sky130_fd_sc_hd__or2_2
*I *1663:Y O *D sky130_fd_sc_hd__a22oi_2
*CAP
1 *1664:B 8.17733e-05
2 *1663:Y 8.17733e-05
3 *1664:B *450:51 0.000139252
4 *1664:B *450:64 3.25831e-05
*RES
1 *1663:Y *1664:B 9.09 
*END

*D_NET *143 0.000786761
*CONN
*I *1665:B I *D sky130_fd_sc_hd__nor2_2
*I *1667:B I *D sky130_fd_sc_hd__and2_2
*I *1664:X O *D sky130_fd_sc_hd__or2_2
*CAP
1 *1665:B 3.203e-05
2 *1667:B 0.000104519
3 *1664:X 4.35942e-05
4 *143:6 0.000180144
5 *1665:B *144:10 1.16578e-05
6 *1665:B *467:10 1.46828e-05
7 *1667:B *1668:A 0
8 *1667:B *144:10 0
9 *143:6 *467:10 0.00011577
10 *1667:A *1667:B 8.97486e-05
11 *118:19 *1665:B 2.75229e-05
12 *118:19 *143:6 4.21973e-05
13 *141:14 *1665:B 0
14 *141:14 *143:6 0.000124895
*RES
1 *1664:X *143:6 3.43 
2 *143:6 *1667:B 7.745 
3 *143:6 *1665:B 2.41 
*END

*D_NET *144 0.00280789
*CONN
*I *1670:A1 I *D sky130_fd_sc_hd__o211a_2
*I *1671:B1 I *D sky130_fd_sc_hd__a211o_2
*I *1668:A I *D sky130_fd_sc_hd__nor2_2
*I *1665:Y O *D sky130_fd_sc_hd__nor2_2
*CAP
1 *1670:A1 0.000182417
2 *1671:B1 1.85694e-05
3 *1668:A 3.82586e-05
4 *1665:Y 0.000133455
5 *144:25 0.000594779
6 *144:10 0.000565506
7 *1668:A *352:13 0
8 *1670:A1 *1670:A2 0.000143591
9 *1671:B1 *1671:C1 9.53428e-06
10 *144:10 *352:13 0
11 *144:10 *467:10 0.000163199
12 *144:25 *1668:B 3.72916e-05
13 *144:25 *1670:A2 1.34594e-05
14 *144:25 *147:14 3.45588e-05
15 *144:25 *148:23 3.1835e-05
16 *1644:A2 *144:25 4.60584e-05
17 *1644:B1 *144:25 0.000122331
18 *1665:B *144:10 1.16578e-05
19 *1667:B *1668:A 0
20 *1667:B *144:10 0
21 *1670:B1 *1670:A1 0.000273872
22 *1670:C1 *1670:A1 0.000163204
23 *118:19 *144:10 6.19997e-05
24 *123:10 *144:25 0.000162311
*RES
1 *1665:Y *144:10 6.465 
2 *144:10 *1668:A 4.215 
3 *144:10 *144:25 9.02 
4 *144:25 *1671:B1 1.96 
5 *144:25 *1670:A1 7.31125 
*END

*D_NET *145 0.00148247
*CONN
*I *1669:B I *D sky130_fd_sc_hd__and3_2
*I *1673:A2 I *D sky130_fd_sc_hd__a21oi_2
*I *1666:X O *D sky130_fd_sc_hd__a22o_2
*CAP
1 *1669:B 0.000296355
2 *1673:A2 0
3 *1666:X 0.000298403
4 *145:12 0.000594758
5 *1669:B *1669:C 0
6 *1669:B *1674:B 0.000163204
7 *1669:B *147:14 1.91597e-05
8 *1669:B *158:10 7.9205e-06
9 *145:12 *1654:B 0
10 *145:12 *1678:A 0
11 *145:12 *158:10 7.35813e-05
12 *145:12 *352:13 0
13 *1669:A *1669:B 2.90871e-05
14 *133:14 *145:12 0
*RES
1 *1666:X *145:12 10.16 
2 *145:12 *1673:A2 1.6 
3 *145:12 *1669:B 5.68 
*END

*D_NET *146 0.000313136
*CONN
*I *1668:B I *D sky130_fd_sc_hd__nor2_2
*I *1667:X O *D sky130_fd_sc_hd__and2_2
*CAP
1 *1668:B 0.000137922
2 *1667:X 0.000137922
3 *144:25 *1668:B 3.72916e-05
*RES
1 *1667:X *1668:B 5.39 
*END

*D_NET *147 0.0011936
*CONN
*I *1673:B1 I *D sky130_fd_sc_hd__a21oi_2
*I *1669:C I *D sky130_fd_sc_hd__and3_2
*I *1668:Y O *D sky130_fd_sc_hd__nor2_2
*CAP
1 *1673:B1 0
2 *1669:C 5.39253e-05
3 *1668:Y 0.000224702
4 *147:14 0.000278627
5 *1669:C *1674:B 6.90876e-05
6 *1669:C *158:10 5.55927e-05
7 *147:14 *1674:B 4.82919e-05
8 *147:14 *352:13 0.0003175
9 *1669:A *1669:C 4.99619e-05
10 *1669:A *147:14 4.21973e-05
11 *1669:B *1669:C 0
12 *1669:B *147:14 1.91597e-05
13 *144:25 *147:14 3.45588e-05
*RES
1 *1668:Y *147:14 10.865 
2 *147:14 *1669:C 3.46 
3 *147:14 *1673:B1 1.6 
*END

*D_NET *148 0.00175637
*CONN
*I *1670:A2 I *D sky130_fd_sc_hd__o211a_2
*I *1671:C1 I *D sky130_fd_sc_hd__a211o_2
*I *1674:A I *D sky130_fd_sc_hd__nor2_2
*I *1669:X O *D sky130_fd_sc_hd__and3_2
*CAP
1 *1670:A2 0.000190532
2 *1671:C1 1.85694e-05
3 *1674:A 0
4 *1669:X 0.000147221
5 *148:23 0.000330469
6 *148:10 0.000268589
7 *1670:A2 *150:12 8.65905e-05
8 *148:10 *1674:B 0.00026817
9 *148:10 *352:13 0
10 *148:23 *1674:B 9.50342e-06
11 *148:23 *352:13 0
12 *1670:A1 *1670:A2 0.000143591
13 *1670:C1 *1670:A2 0.000164874
14 *1671:B1 *1671:C1 9.53428e-06
15 *136:8 *148:23 7.34364e-05
16 *144:25 *1670:A2 1.34594e-05
17 *144:25 *148:23 3.1835e-05
*RES
1 *1669:X *148:10 6.375 
2 *148:10 *1674:A 3.6 
3 *148:10 *148:23 4.43 
4 *148:23 *1671:C1 1.96 
5 *148:23 *1670:A2 5.86 
*END

*D_NET *149 0.000846183
*CONN
*I *1749:B1 I *D sky130_fd_sc_hd__a21o_2
*I *1672:A_N I *D sky130_fd_sc_hd__nand2b_2
*I *1670:X O *D sky130_fd_sc_hd__o211a_2
*CAP
1 *1749:B1 6.76888e-05
2 *1672:A_N 8.00779e-06
3 *1670:X 0.000122989
4 *149:12 0.000198686
5 *1672:A_N *1681:A 2.30292e-05
6 *1672:A_N *1749:A1 4.82863e-05
7 *1749:B1 *1681:A 0.000157172
8 *1749:B1 *1681:B 0.000127111
9 *1749:B1 *1749:A1 1.46744e-05
10 *149:12 *150:12 0
11 *149:12 *159:10 8.53113e-06
12 *149:12 *241:8 7.00066e-05
*RES
1 *1670:X *149:12 7.685 
2 *149:12 *1672:A_N 2.05 
3 *149:12 *1749:B1 3.805 
*END

*D_NET *150 0.000993709
*CONN
*I *1749:A1 I *D sky130_fd_sc_hd__a21o_2
*I *1672:B I *D sky130_fd_sc_hd__nand2b_2
*I *1671:X O *D sky130_fd_sc_hd__a211o_2
*CAP
1 *1749:A1 0.000183964
2 *1672:B 0
3 *1671:X 0.000161604
4 *150:12 0.000345568
5 *1749:A1 *1681:A 9.80943e-06
6 *1749:A1 *1681:B 4.66108e-05
7 *1749:A1 *153:14 9.66021e-05
8 *1670:A2 *150:12 8.65905e-05
9 *1672:A_N *1749:A1 4.82863e-05
10 *1749:B1 *1749:A1 1.46744e-05
11 *136:8 *150:12 0
12 *149:12 *150:12 0
*RES
1 *1671:X *150:12 7.775 
2 *150:12 *1672:B 1.6 
3 *150:12 *1749:A1 4.825 
*END

*D_NET *151 0.00100047
*CONN
*I *1681:A I *D sky130_fd_sc_hd__xnor2_2
*I *1672:Y O *D sky130_fd_sc_hd__nand2b_2
*CAP
1 *1681:A 0.000325892
2 *1672:Y 0.000325892
3 *1681:A *1681:B 0.000110384
4 *1681:A *153:14 4.82863e-05
5 *1672:A_N *1681:A 2.30292e-05
6 *1749:A1 *1681:A 9.80943e-06
7 *1749:B1 *1681:A 0.000157172
*RES
1 *1672:Y *1681:A 8.75 
*END

*D_NET *152 0.00110389
*CONN
*I *1674:B I *D sky130_fd_sc_hd__nor2_2
*I *1673:Y O *D sky130_fd_sc_hd__a21oi_2
*CAP
1 *1674:B 0.000142918
2 *1673:Y 0.000142918
3 *1674:B *158:10 9.51136e-05
4 *1669:B *1674:B 0.000163204
5 *1669:C *1674:B 6.90876e-05
6 *136:8 *1674:B 0.000164686
7 *147:14 *1674:B 4.82919e-05
8 *148:10 *1674:B 0.00026817
9 *148:23 *1674:B 9.50342e-06
*RES
1 *1673:Y *1674:B 12.645 
*END

*D_NET *153 0.0013476
*CONN
*I *1680:B I *D sky130_fd_sc_hd__and2b_2
*I *1936:A I *D sky130_fd_sc_hd__xnor2_2
*I *1674:Y O *D sky130_fd_sc_hd__nor2_2
*CAP
1 *1680:B 0
2 *1936:A 0.000173617
3 *1674:Y 0.000337688
4 *153:14 0.000511305
5 *1936:A *1936:B 0.00011984
6 *153:14 *1936:B 1.61831e-05
7 *153:14 *159:10 4.40812e-05
8 *153:14 *241:8 0
9 *1681:A *153:14 4.82863e-05
10 *1749:A1 *153:14 9.66021e-05
*RES
1 *1674:Y *153:14 11.585 
2 *153:14 *1936:A 4.84 
3 *153:14 *1680:B 1.6 
*END

*D_NET *154 0.00140534
*CONN
*I *1676:B I *D sky130_fd_sc_hd__nor2_2
*I *1675:Y O *D sky130_fd_sc_hd__a22oi_2
*CAP
1 *1676:B 0.000261671
2 *1675:Y 0.000261671
3 *1676:B *1675:B1 8.89751e-05
4 *1676:B *155:12 9.53428e-06
5 *1676:B *418:47 3.05295e-05
6 *1676:B *442:32 0
7 *1676:B *497:81 0.000391918
8 *1628:A *1676:B 0
9 *89:20 *1676:B 9.27255e-06
10 *102:10 *1676:B 0.000309607
11 *106:29 *1676:B 4.21662e-05
*RES
1 *1675:Y *1676:B 14.295 
*END

*D_NET *155 0.0039939
*CONN
*I *1677:B I *D sky130_fd_sc_hd__xnor2_2
*I *1679:A3 I *D sky130_fd_sc_hd__a31oi_2
*I *1676:Y O *D sky130_fd_sc_hd__nor2_2
*CAP
1 *1677:B 0
2 *1679:A3 0.000206219
3 *1676:Y 0.00135616
4 *155:12 0.00156238
5 *1679:A3 *450:19 0
6 *155:12 *2000:CLK 1.83756e-05
7 *155:12 *450:19 0
8 *155:12 *450:38 0
9 *155:12 *451:10 0
10 *155:12 *453:10 0.000316415
11 *1628:A *155:12 9.91257e-05
12 *1628:B *155:12 3.23663e-05
13 *1662:A *155:12 1.0124e-05
14 *1662:B *155:12 5.33172e-05
15 *1676:B *155:12 9.53428e-06
16 *1677:A *1679:A3 4.18603e-06
17 *1677:A *155:12 5.92849e-05
18 *1998:D *1679:A3 0
19 *1998:D *155:12 0
20 *2000:D *155:12 4.82319e-06
21 *106:29 *155:12 7.99757e-05
22 *141:14 *155:12 0.000181611
*RES
1 *1676:Y *155:12 22.665 
2 *155:12 *1679:A3 6.885 
3 *155:12 *1677:B 3.6 
*END

*D_NET *156 0.00107385
*CONN
*I *1678:C I *D sky130_fd_sc_hd__and3_2
*I *1934:B1 I *D sky130_fd_sc_hd__a21oi_2
*I *1677:Y O *D sky130_fd_sc_hd__xnor2_2
*CAP
1 *1678:C 7.78997e-05
2 *1934:B1 4.33473e-05
3 *1677:Y 8.57943e-05
4 *156:8 0.000207041
5 *1678:C *1678:B 1.4399e-05
6 *1678:C *1679:B1 4.82863e-05
7 *1678:C *158:10 0.000159747
8 *1934:B1 *1935:A 7.63204e-05
9 *1934:B1 *383:12 0.000140912
10 *156:8 *1678:B 0
11 *156:8 *1935:A 1.71013e-05
12 *156:8 *383:12 0.000203002
*RES
1 *1677:Y *156:8 6 
2 *156:8 *1934:B1 5.235 
3 *156:8 *1678:C 5.43 
*END

*D_NET *157 0.000399179
*CONN
*I *1935:A I *D sky130_fd_sc_hd__nor2_2
*I *1679:B1 I *D sky130_fd_sc_hd__a31oi_2
*I *1678:X O *D sky130_fd_sc_hd__and3_2
*CAP
1 *1935:A 6.53061e-05
2 *1679:B1 2.12116e-05
3 *1678:X 0
4 *157:4 8.65177e-05
5 *1935:A *1678:B 8.44359e-05
6 *1678:C *1679:B1 4.82863e-05
7 *1934:B1 *1935:A 7.63204e-05
8 *156:8 *1935:A 1.71013e-05
*RES
1 *1678:X *157:4 1.6 
2 *157:4 *1679:B1 2.05 
3 *157:4 *1935:A 7.49 
*END

*D_NET *158 0.00363639
*CONN
*I *1936:B I *D sky130_fd_sc_hd__xnor2_2
*I *1680:A_N I *D sky130_fd_sc_hd__and2b_2
*I *1679:Y O *D sky130_fd_sc_hd__a31oi_2
*CAP
1 *1936:B 0.000190223
2 *1680:A_N 0
3 *1679:Y 0.00124037
4 *158:10 0.00143059
5 *158:10 *1678:A 4.82863e-05
6 *1669:A *158:10 0.000198945
7 *1669:B *158:10 7.9205e-06
8 *1669:C *158:10 5.55927e-05
9 *1674:B *158:10 9.51136e-05
10 *1678:C *158:10 0.000159747
11 *1936:A *1936:B 0.00011984
12 *145:12 *158:10 7.35813e-05
13 *153:14 *1936:B 1.61831e-05
*RES
1 *1679:Y *158:10 18.04 
2 *158:10 *1680:A_N 1.6 
3 *158:10 *1936:B 4.825 
*END

*D_NET *159 0.000916409
*CONN
*I *1681:B I *D sky130_fd_sc_hd__xnor2_2
*I *1749:A2 I *D sky130_fd_sc_hd__a21o_2
*I *1680:X O *D sky130_fd_sc_hd__and2b_2
*CAP
1 *1681:B 0.000158534
2 *1749:A2 0
3 *1680:X 6.28732e-05
4 *159:10 0.000221407
5 *159:10 *241:8 0.000136877
6 *1681:A *1681:B 0.000110384
7 *1749:A1 *1681:B 4.66108e-05
8 *1749:B1 *1681:B 0.000127111
9 *149:12 *159:10 8.53113e-06
10 *153:14 *159:10 4.40812e-05
*RES
1 *1680:X *159:10 7.235 
2 *159:10 *1749:A2 1.6 
3 *159:10 *1681:B 5.395 
*END

*D_NET *160 0.00209639
*CONN
*I *1765:A1 I *D sky130_fd_sc_hd__a21bo_2
*I *1710:A I *D sky130_fd_sc_hd__and3_4
*I *1711:B1 I *D sky130_fd_sc_hd__a21oi_2
*I *1682:Y O *D sky130_fd_sc_hd__o21bai_2
*CAP
1 *1765:A1 0.000169872
2 *1710:A 9.71884e-06
3 *1711:B1 0
4 *1682:Y 0.000578925
5 *160:12 9.71884e-06
6 *160:10 0.000748797
7 *1710:A *1710:B 4.82919e-05
8 *1710:A *1710:C 4.82919e-05
9 *1765:A1 *1709:B1 0
10 *1765:A1 *1765:A2 0.000164686
11 *1765:A1 *185:8 0
12 *1765:A1 *186:23 0
13 *160:10 *186:23 0
14 *1682:B1_N *160:10 0.000318091
15 *100:8 *160:10 0
*RES
1 *1682:Y *160:10 13.215 
2 *160:10 *160:12 2 
3 *160:12 *1711:B1 1.6 
4 *160:12 *1710:A 2.05 
5 *160:10 *1765:A1 6.795 
*END

*D_NET *161 0.00107798
*CONN
*I *1770:A1 I *D sky130_fd_sc_hd__a21oi_2
*I *1683:Y O *D sky130_fd_sc_hd__nand2_2
*CAP
1 *1770:A1 0.000189803
2 *1683:Y 0.000189803
3 *1770:A1 *1773:A 8.2644e-05
4 *1770:A1 *244:10 0
5 *1770:A1 *249:12 0.000117825
6 *1770:A1 *439:81 7.44375e-05
7 *1770:A1 *441:46 5.05521e-05
8 *1770:A1 *495:20 0.000132721
9 *1770:A1 *495:22 7.89611e-05
10 *1770:A1 *495:26 7.63125e-05
11 *1770:A1 *497:14 8.49205e-05
*RES
1 *1683:Y *1770:A1 13.71 
*END

*D_NET *162 0.00231929
*CONN
*I *1767:A I *D sky130_fd_sc_hd__nand2_2
*I *1687:C I *D sky130_fd_sc_hd__nand4_2
*I *1686:B1 I *D sky130_fd_sc_hd__a22o_4
*I *1684:Y O *D sky130_fd_sc_hd__nand4_4
*CAP
1 *1767:A 0.000198919
2 *1687:C 0.000294395
3 *1686:B1 0
4 *1684:Y 6.46572e-05
5 *162:17 0.000568433
6 *162:8 0.000139776
7 *1687:C *1689:A2 0.000160641
8 *1687:C *474:16 9.82856e-06
9 *1767:A *2093:A 0.000150453
10 *1767:A *167:10 0.000162332
11 *1767:A *244:10 8.40213e-05
12 *1767:A *441:46 5.38986e-06
13 *1767:A *474:16 1.08012e-05
14 *1767:A *495:26 0.000116853
15 *162:8 *441:46 0.00010506
16 *162:8 *474:16 7.37195e-05
17 *162:17 *441:46 0.000105926
18 *162:17 *474:16 6.80854e-05
*RES
1 *1684:Y *162:8 5.745 
2 *162:8 *1686:B1 3.6 
3 *162:8 *162:17 2.2725 
4 *162:17 *1687:C 8.1075 
5 *162:17 *1767:A 8.5425 
*END

*D_NET *163 0.00137851
*CONN
*I *1687:D I *D sky130_fd_sc_hd__nand4_2
*I *1686:B2 I *D sky130_fd_sc_hd__a22o_4
*I *1685:X O *D sky130_fd_sc_hd__a22o_4
*CAP
1 *1687:D 9.71911e-05
2 *1686:B2 0.000190368
3 *1685:X 0.000166941
4 *163:8 0.0004545
5 *1686:B2 *1686:A1 7.22354e-05
6 *1686:B2 *1686:A2 4.82919e-05
7 *1686:B2 *485:20 0.000138808
8 *1687:D *440:75 7.75412e-05
9 *163:8 *440:66 5.92849e-05
10 *163:8 *440:75 7.33465e-05
*RES
1 *1685:X *163:8 7.275 
2 *163:8 *1686:B2 7.5 
3 *163:8 *1687:D 5.745 
*END

*D_NET *164 0.000634714
*CONN
*I *1688:B I *D sky130_fd_sc_hd__nand3_2
*I *1689:A1 I *D sky130_fd_sc_hd__a21o_4
*I *1686:X O *D sky130_fd_sc_hd__a22o_4
*CAP
1 *1688:B 0.000105842
2 *1689:A1 7.85881e-05
3 *1686:X 0
4 *164:4 0.00018443
5 *1688:B *485:20 5.33172e-05
6 *1689:A1 *1688:C 7.63282e-05
7 *1689:A1 *439:49 8.53113e-06
8 *1689:A1 *439:66 9.37731e-05
9 *1689:A1 *439:81 1.65192e-05
10 *1689:A1 *485:20 1.7386e-05
*RES
1 *1686:X *164:4 1.6 
2 *164:4 *1689:A1 7.685 
3 *164:4 *1688:B 3.445 
*END

*D_NET *165 0.00190813
*CONN
*I *1688:C I *D sky130_fd_sc_hd__nand3_2
*I *1689:A2 I *D sky130_fd_sc_hd__a21o_4
*I *1767:B I *D sky130_fd_sc_hd__nand2_2
*I *1687:Y O *D sky130_fd_sc_hd__nand4_2
*CAP
1 *1688:C 8.18394e-05
2 *1689:A2 0.000249307
3 *1767:B 0.000144449
4 *1687:Y 0
5 *165:4 0.000311917
6 *1688:C *166:8 8.71001e-05
7 *1688:C *439:49 9.29751e-06
8 *1689:A2 *1687:A 9.68131e-05
9 *1689:A2 *167:10 4.82919e-05
10 *1767:B *474:16 0.000328978
11 *1767:B *485:12 0.000207251
12 *1767:B *485:14 5.53249e-06
13 *1687:C *1689:A2 0.000160641
14 *1689:A1 *1688:C 7.63282e-05
15 *1689:B1 *1688:C 4.82863e-05
16 *1689:B1 *1689:A2 5.20981e-05
*RES
1 *1687:Y *165:4 1.6 
2 *165:4 *1767:B 9.785 
3 *165:4 *1689:A2 5.53 
4 *1689:A2 *1688:C 9.54 
*END

*D_NET *166 0.00223327
*CONN
*I *1776:A I *D sky130_fd_sc_hd__and2_2
*I *1691:B1 I *D sky130_fd_sc_hd__a22o_4
*I *1690:C I *D sky130_fd_sc_hd__nand4_2
*I *1688:Y O *D sky130_fd_sc_hd__nand3_2
*CAP
1 *1776:A 0.000296279
2 *1691:B1 0.0001401
3 *1690:C 0
4 *1688:Y 0.000266128
5 *166:10 0.0001401
6 *166:8 0.000562407
7 *1691:B1 *1690:B 0.000425402
8 *1691:B1 *1691:A1 9.65297e-05
9 *1691:B1 *1691:A2 1.16578e-05
10 *1691:B1 *169:8 9.66021e-05
11 *1776:A *1690:D 5.46798e-05
12 *1776:A *1692:B 0
13 *1776:A *1776:B 0
14 *1776:A *168:21 0
15 *1776:A *244:10 0
16 *1776:A *439:81 0
17 *1776:A *497:14 5.0751e-05
18 *166:8 *1690:D 5.53249e-06
19 *166:8 *1692:B 0
20 *166:8 *439:49 0
21 *166:8 *439:81 0
22 *1688:C *166:8 8.71001e-05
23 *1689:B1 *166:8 0
24 *93:19 *166:8 0
*RES
1 *1688:Y *166:8 8.04 
2 *166:8 *166:10 2 
3 *166:10 *1690:C 1.6 
4 *166:10 *1691:B1 6.22 
5 *166:8 *1776:A 8.67 
*END

*D_NET *167 0.00131386
*CONN
*I *2093:A I *D sky130_fd_sc_hd__buf_2
*I *1691:B2 I *D sky130_fd_sc_hd__a22o_4
*I *1689:X O *D sky130_fd_sc_hd__a21o_4
*CAP
1 *2093:A 0.000167598
2 *1691:B2 0
3 *1689:X 6.86172e-05
4 *167:10 0.000236215
5 *2093:A *244:10 0.000158066
6 *2093:A *441:46 0.000159957
7 *167:10 *441:46 0.000162332
8 *1689:A2 *167:10 4.82919e-05
9 *1767:A *2093:A 0.000150453
10 *1767:A *167:10 0.000162332
*RES
1 *1689:X *167:10 5.94 
2 *167:10 *1691:B2 3.6 
3 *167:10 *2093:A 7.665 
*END

*D_NET *168 0.00139138
*CONN
*I *1776:B I *D sky130_fd_sc_hd__and2_2
*I *1693:A2 I *D sky130_fd_sc_hd__a21o_4
*I *1692:B I *D sky130_fd_sc_hd__nand3_2
*I *1690:Y O *D sky130_fd_sc_hd__nand4_2
*CAP
1 *1776:B 0.000141657
2 *1693:A2 3.39263e-05
3 *1692:B 0.00026323
4 *1690:Y 0
5 *168:21 0.000289921
6 *168:6 0.000377567
7 *1692:B *1690:A 4.31106e-05
8 *1692:B *1692:C 3.7837e-05
9 *1692:B *438:78 0.000186099
10 *1776:B *243:14 0
11 *1776:B *244:10 0
12 *168:21 *1690:A 9.50342e-06
13 *168:21 *1693:A1 0
14 *168:21 *243:14 0
15 *1689:B1 *1692:B 8.53113e-06
16 *1776:A *1692:B 0
17 *1776:A *1776:B 0
18 *1776:A *168:21 0
19 *166:8 *1692:B 0
*RES
1 *1690:Y *168:6 3.6 
2 *168:6 *1692:B 8.445 
3 *168:6 *168:21 1.89 
4 *168:21 *1693:A2 4.05 
5 *168:21 *1776:B 6 
*END

*D_NET *169 0.00223229
*CONN
*I *1693:A1 I *D sky130_fd_sc_hd__a21o_4
*I *1692:C I *D sky130_fd_sc_hd__nand3_2
*I *1691:X O *D sky130_fd_sc_hd__a22o_4
*CAP
1 *1693:A1 0.000222618
2 *1692:C 0.000174112
3 *1691:X 0.000263588
4 *169:8 0.000660318
5 *1692:C *170:14 0.000163019
6 *1693:A1 *170:14 8.53113e-06
7 *1693:A1 *243:14 0.00011852
8 *169:8 *1690:B 3.09179e-05
9 *169:8 *1691:A1 0.000387891
10 *1691:B1 *169:8 9.66021e-05
11 *1692:B *1692:C 3.7837e-05
12 *1693:B1 *1693:A1 6.8338e-05
13 *168:21 *1693:A1 0
*RES
1 *1691:X *169:8 9.225 
2 *169:8 *1692:C 6.99 
3 *169:8 *1693:A1 7.68 
*END

*D_NET *170 0.001634
*CONN
*I *1695:A2 I *D sky130_fd_sc_hd__a21o_4
*I *1694:B I *D sky130_fd_sc_hd__nand3_2
*I *1766:B1_N I *D sky130_fd_sc_hd__a21bo_4
*I *1692:Y O *D sky130_fd_sc_hd__nand3_2
*CAP
1 *1695:A2 8.4619e-05
2 *1694:B 0.000293177
3 *1766:B1_N 0
4 *1692:Y 0
5 *170:14 0.000383574
6 *170:4 0.000175016
7 *1694:B *1766:A2 4.82919e-05
8 *1694:B *171:10 0.000164686
9 *1694:B *243:14 4.77757e-05
10 *1694:B *445:23 1.94723e-05
11 *170:14 *243:14 1.91597e-05
12 *1692:C *170:14 0.000163019
13 *1693:A1 *170:14 8.53113e-06
14 *1693:B1 *170:14 0.000163019
15 *1694:A *1694:B 5.92191e-05
16 *98:19 *1694:B 4.43871e-06
*RES
1 *1692:Y *170:4 1.6 
2 *170:4 *170:14 6.7 
3 *170:14 *1766:B1_N 1.6 
4 *170:14 *1694:B 10.805 
5 *170:4 *1695:A2 2.74 
*END

*D_NET *171 0.00169956
*CONN
*I *1694:C I *D sky130_fd_sc_hd__nand3_2
*I *1766:A2 I *D sky130_fd_sc_hd__a21bo_4
*I *1695:A1 I *D sky130_fd_sc_hd__a21o_4
*I *1693:X O *D sky130_fd_sc_hd__a21o_4
*CAP
1 *1694:C 0.000136354
2 *1766:A2 0.000100822
3 *1695:A1 0.000193222
4 *1693:X 0.000111536
5 *171:10 0.000404788
6 *171:6 0.000358634
7 *1694:C *172:10 9.52646e-05
8 *171:10 *243:14 0
9 *171:10 *445:23 0
10 *1694:A *1694:C 1.34594e-05
11 *1694:B *1766:A2 4.82919e-05
12 *1694:B *171:10 0.000164686
13 *98:19 *1695:A1 6.52906e-05
14 *98:19 *171:10 7.21296e-06
*RES
1 *1693:X *171:6 3.085 
2 *171:6 *171:10 4.4 
3 *171:10 *1695:A1 6.99 
4 *171:10 *1766:A2 5.085 
5 *171:6 *1694:C 4.135 
*END

*D_NET *172 0.0029335
*CONN
*I *1708:A I *D sky130_fd_sc_hd__nand3_2
*I *1709:A1 I *D sky130_fd_sc_hd__a21o_4
*I *1694:Y O *D sky130_fd_sc_hd__nand3_2
*CAP
1 *1708:A 0
2 *1709:A1 0.000179858
3 *1694:Y 0.00112936
4 *172:10 0.00130922
5 *1709:A1 *1709:B1 0
6 *1709:A1 *2092:A 0
7 *172:10 *1607:A 4.66108e-05
8 *172:10 *1709:B1 0
9 *172:10 *184:12 0
10 *172:10 *185:8 0
11 *1694:A *172:10 4.82863e-05
12 *1694:C *172:10 9.52646e-05
13 *86:10 *172:10 0.000124895
*RES
1 *1694:Y *172:10 20.175 
2 *172:10 *1709:A1 6.45 
3 *172:10 *1708:A 3.6 
*END

*D_NET *173 0.00317795
*CONN
*I *1709:A2 I *D sky130_fd_sc_hd__a21o_4
*I *2092:A I *D sky130_fd_sc_hd__buf_2
*I *1695:X O *D sky130_fd_sc_hd__a21o_4
*CAP
1 *1709:A2 0.000103613
2 *2092:A 0.000192878
3 *1695:X 0.00109893
4 *173:8 0.00139542
5 *173:8 *1605:D 0.00016063
6 *173:8 *497:58 1.91597e-05
7 *173:8 *497:71 1.91597e-05
8 *1608:A *173:8 2.75145e-05
9 *1611:A *2092:A 0
10 *1706:B1 *2092:A 0
11 *1709:A1 *2092:A 0
12 *84:10 *173:8 0.000160635
*RES
1 *1695:X *173:8 14.14 
2 *173:8 *2092:A 8.51 
3 *173:8 *1709:A2 3.01 
*END

*D_NET *174 0.000802998
*CONN
*I *1705:A I *D sky130_fd_sc_hd__xnor2_4
*I *1788:A1 I *D sky130_fd_sc_hd__o21ba_2
*I *1696:Y O *D sky130_fd_sc_hd__nand2_2
*CAP
1 *1705:A 7.22852e-05
2 *1788:A1 0.000247448
3 *1696:Y 7.56277e-05
4 *174:6 0.000395361
5 *1788:A1 *1607:B 0
6 *1788:A1 *1696:A 0
7 *1788:A1 *1705:B 0
8 *1788:A1 *1821:A1 0
9 *1788:A1 *257:10 1.22762e-05
10 *1788:A1 *443:112 0
*RES
1 *1696:Y *174:6 2.74 
2 *174:6 *1788:A1 9.635 
3 *174:6 *1705:A 2.74 
*END

*D_NET *175 0.00152205
*CONN
*I *1783:A1 I *D sky130_fd_sc_hd__a21o_2
*I *1697:Y O *D sky130_fd_sc_hd__nand2_2
*CAP
1 *1783:A1 0.000302031
2 *1697:Y 0.000302031
3 *1783:A1 *1781:C 0.00031916
4 *1783:A1 *1826:A2 0
5 *1783:A1 *445:51 5.16418e-05
6 *1783:A1 *506:10 0.000178496
7 *1783:A1 *506:12 5.74016e-05
8 *1783:A1 *512:68 0.000311288
*RES
1 *1697:Y *1783:A1 14.76 
*END

*D_NET *176 0.00129565
*CONN
*I *1700:B1 I *D sky130_fd_sc_hd__a22o_2
*I *1701:C I *D sky130_fd_sc_hd__nand4_2
*I *1780:A I *D sky130_fd_sc_hd__nand2_2
*I *1698:Y O *D sky130_fd_sc_hd__nand4_2
*CAP
1 *1700:B1 0.000118835
2 *1701:C 0.000108222
3 *1780:A 0
4 *1698:Y 0.000111687
5 *176:10 0.000108222
6 *176:8 0.000230522
7 *1700:B1 *1700:A1 4.82919e-05
8 *1700:B1 *1700:B2 8.57024e-05
9 *1700:B1 *1784:A 1.1561e-05
10 *1700:B1 *177:10 0
11 *1700:B1 *256:14 2.0514e-05
12 *1700:B1 *443:126 4.05358e-05
13 *1700:B1 *445:51 5.50989e-05
14 *1701:C *1780:B 7.76509e-05
15 *1701:C *257:10 3.23663e-05
16 *1701:C *443:126 0.000171845
17 *176:8 *1607:B 0
18 *176:8 *177:10 0
19 *176:8 *445:23 2.97004e-06
20 *176:8 *445:51 7.16263e-05
*RES
1 *1698:Y *176:8 5.745 
2 *176:8 *176:10 2 
3 *176:10 *1780:A 1.6 
4 *176:10 *1701:C 4.495 
5 *176:8 *1700:B1 6.375 
*END

*D_NET *177 0.00196467
*CONN
*I *1700:B2 I *D sky130_fd_sc_hd__a22o_2
*I *1701:D I *D sky130_fd_sc_hd__nand4_2
*I *1699:X O *D sky130_fd_sc_hd__a22o_2
*CAP
1 *1700:B2 0.000206628
2 *1701:D 0
3 *1699:X 0.000471379
4 *177:10 0.000678006
5 *1700:B2 *1607:B 0
6 *1700:B2 *1700:A1 2.05056e-05
7 *1700:B2 *1784:A 3.67779e-05
8 *1700:B2 *256:14 0.000108687
9 *1700:B2 *443:126 3.67779e-05
10 *1700:B2 *512:68 0
11 *1700:B2 *512:70 0
12 *177:10 *1604:B 1.87074e-05
13 *177:10 *1607:B 0
14 *177:10 *1698:A 3.07153e-05
15 *177:10 *497:25 0.000270784
16 *1700:B1 *1700:B2 8.57024e-05
17 *1700:B1 *177:10 0
18 *176:8 *177:10 0
*RES
1 *1699:X *177:10 9.825 
2 *177:10 *1701:D 3.6 
3 *177:10 *1700:B2 7.245 
*END

*D_NET *178 0.00135696
*CONN
*I *1702:B I *D sky130_fd_sc_hd__and3_2
*I *1703:A1 I *D sky130_fd_sc_hd__a21oi_2
*I *1700:X O *D sky130_fd_sc_hd__a22o_2
*CAP
1 *1702:B 0.000209876
2 *1703:A1 0
3 *1700:X 9.89909e-05
4 *178:8 0.000308866
5 *1702:B *1696:B 7.18738e-05
6 *1702:B *256:14 1.34503e-05
7 *1702:B *257:10 0.000122331
8 *1702:B *443:112 4.9968e-05
9 *178:8 *1700:A2 5.05437e-05
10 *178:8 *256:14 0.000198051
11 *1703:B1 *1702:B 0.000137571
12 *83:12 *1702:B 9.54399e-05
*RES
1 *1700:X *178:8 4.045 
2 *178:8 *1703:A1 1.6 
3 *178:8 *1702:B 9.845 
*END

*D_NET *179 0.00130385
*CONN
*I *1703:A2 I *D sky130_fd_sc_hd__a21oi_2
*I *1702:C I *D sky130_fd_sc_hd__and3_2
*I *1780:B I *D sky130_fd_sc_hd__nand2_2
*I *1701:Y O *D sky130_fd_sc_hd__nand4_2
*CAP
1 *1703:A2 3.12967e-05
2 *1702:C 0.000175613
3 *1780:B 4.389e-05
4 *1701:Y 6.217e-05
5 *179:22 0.00022519
6 *1702:C *257:10 2.50702e-05
7 *1702:C *443:126 5.99393e-05
8 *1703:A2 *1696:B 0.00011852
9 *1703:A2 *512:68 8.53113e-06
10 *1703:A2 *512:70 0.000109016
11 *1780:B *257:10 0.000124007
12 *179:22 *1607:B 3.25831e-05
13 *179:22 *1696:B 7.47145e-05
14 *179:22 *512:70 5.33085e-05
15 *1701:C *1780:B 7.76509e-05
16 *83:12 *1702:C 8.23457e-05
*RES
1 *1701:Y *1780:B 4.7 
2 *1701:Y *179:22 4.47 
3 *179:22 *1702:C 5.775 
4 *179:22 *1703:A2 4.98 
*END

*D_NET *180 0.00100868
*CONN
*I *1704:A I *D sky130_fd_sc_hd__nor2_4
*I *1788:B1_N I *D sky130_fd_sc_hd__o21ba_2
*I *1702:X O *D sky130_fd_sc_hd__and3_2
*CAP
1 *1704:A 0.000135414
2 *1788:B1_N 1.11992e-05
3 *1702:X 0.000164588
4 *180:8 0.000311201
5 *1704:A *1704:B 0.000141253
6 *1704:A *265:10 8.65961e-05
7 *1788:B1_N *1704:B 9.53428e-06
8 *180:8 *1704:B 0.000100608
9 *180:8 *265:10 4.82863e-05
10 *180:8 *443:112 0
*RES
1 *1702:X *180:8 4.48 
2 *180:8 *1788:B1_N 1.96 
3 *180:8 *1704:A 4.48 
*END

*D_NET *181 0.00124788
*CONN
*I *1788:A2 I *D sky130_fd_sc_hd__o21ba_2
*I *1704:B I *D sky130_fd_sc_hd__nor2_4
*I *1703:Y O *D sky130_fd_sc_hd__a21oi_2
*CAP
1 *1788:A2 0
2 *1704:B 0.000160383
3 *1703:Y 0.000309226
4 *181:12 0.000469609
5 *181:12 *1821:A1 0
6 *181:12 *256:14 2.72274e-05
7 *181:12 *257:10 0
8 *1703:B1 *181:12 3.00381e-05
9 *1704:A *1704:B 0.000141253
10 *1788:B1_N *1704:B 9.53428e-06
11 *180:8 *1704:B 0.000100608
*RES
1 *1703:Y *181:12 9.5 
2 *181:12 *1704:B 5.29 
3 *181:12 *1788:A2 1.6 
*END

*D_NET *182 0.00056084
*CONN
*I *1705:B I *D sky130_fd_sc_hd__xnor2_4
*I *1704:Y O *D sky130_fd_sc_hd__nor2_4
*CAP
1 *1705:B 0.000242692
2 *1704:Y 0.000242692
3 *1705:B *1821:A1 7.54567e-05
4 *1705:B *1821:A2 0
5 *1705:B *184:23 0
6 *1788:A1 *1705:B 0
*RES
1 *1704:Y *1705:B 11.58 
*END

*D_NET *183 0.00156511
*CONN
*I *1821:A2 I *D sky130_fd_sc_hd__a21oi_2
*I *1792:A I *D sky130_fd_sc_hd__nand2_2
*I *1707:B I *D sky130_fd_sc_hd__xor2_2
*I *1705:Y O *D sky130_fd_sc_hd__xnor2_4
*CAP
1 *1821:A2 0.00040254
2 *1792:A 0
3 *1707:B 8.98227e-05
4 *1705:Y 0
5 *183:15 0.000492613
6 *183:6 0.000179896
7 *1707:B *184:12 5.53249e-06
8 *1707:B *184:23 0.000107716
9 *1707:B *242:10 0
10 *1821:A2 *1793:A 8.53113e-06
11 *1821:A2 *1793:B 0
12 *1821:A2 *1821:A1 0
13 *1821:A2 *242:10 0
14 *1821:A2 *256:14 0.00014046
15 *1821:A2 *265:10 0
16 *1821:A2 *297:10 3.76916e-05
17 *183:15 *184:23 0.000100308
18 *183:15 *242:10 0
19 *1705:B *1821:A2 0
*RES
1 *1705:Y *183:6 3.6 
2 *183:6 *1707:B 4.145 
3 *183:6 *183:15 2.145 
4 *183:15 *1792:A 3.6 
5 *183:15 *1821:A2 10.8225 
*END

*D_NET *184 0.00225973
*CONN
*I *1792:B I *D sky130_fd_sc_hd__nand2_2
*I *1821:A1 I *D sky130_fd_sc_hd__a21oi_2
*I *1707:A I *D sky130_fd_sc_hd__xor2_2
*I *1706:X O *D sky130_fd_sc_hd__a32o_2
*CAP
1 *1792:B 0
2 *1821:A1 0.000421484
3 *1707:A 0
4 *1706:X 0.000334544
5 *184:23 0.000600768
6 *184:12 0.000513828
7 *1821:A1 *257:10 0
8 *1821:A1 *265:10 6.55328e-05
9 *1705:B *1821:A1 7.54567e-05
10 *1705:B *184:23 0
11 *1706:B1 *184:12 3.45588e-05
12 *1707:B *184:12 5.53249e-06
13 *1707:B *184:23 0.000107716
14 *1788:A1 *1821:A1 0
15 *1821:A2 *1821:A1 0
16 *172:10 *184:12 0
17 *181:12 *1821:A1 0
18 *183:15 *184:23 0.000100308
*RES
1 *1706:X *184:12 7.86 
2 *184:12 *1707:A 3.6 
3 *184:12 *184:23 6.185 
4 *184:23 *1821:A1 12.65 
5 *184:23 *1792:B 1.6 
*END

*D_NET *185 0.000763161
*CONN
*I *1708:C I *D sky130_fd_sc_hd__nand3_2
*I *1709:B1 I *D sky130_fd_sc_hd__a21o_4
*I *1707:X O *D sky130_fd_sc_hd__xor2_2
*CAP
1 *1708:C 0
2 *1709:B1 0.000252529
3 *1707:X 6.89583e-05
4 *185:8 0.000321487
5 *1709:B1 *186:23 0
6 *185:8 *242:10 0.000120186
7 *1709:A1 *1709:B1 0
8 *1765:A1 *1709:B1 0
9 *1765:A1 *185:8 0
10 *172:10 *1709:B1 0
11 *172:10 *185:8 0
*RES
1 *1707:X *185:8 5.235 
2 *185:8 *1709:B1 7.485 
3 *185:8 *1708:C 3.6 
*END

*D_NET *186 0.00124374
*CONN
*I *1711:A1 I *D sky130_fd_sc_hd__a21oi_2
*I *1710:B I *D sky130_fd_sc_hd__and3_4
*I *1765:B1_N I *D sky130_fd_sc_hd__a21bo_2
*I *1708:Y O *D sky130_fd_sc_hd__nand3_2
*CAP
1 *1711:A1 0
2 *1710:B 0.000102565
3 *1765:B1_N 2.45628e-05
4 *1708:Y 0.000124713
5 *186:23 0.000266232
6 *186:6 0.000312943
7 *1710:B *1710:C 6.07328e-05
8 *1710:B *187:13 7.60965e-05
9 *1710:B *189:16 0.000162311
10 *186:23 *1765:A2 6.52906e-05
11 *1709:B1 *186:23 0
12 *1710:A *1710:B 4.82919e-05
13 *1765:A1 *186:23 0
14 *160:10 *186:23 0
*RES
1 *1708:Y *186:6 3.43 
2 *186:6 *1765:B1_N 2.06875 
3 *186:6 *186:23 6.94 
4 *186:23 *1710:B 4.48 
5 *186:23 *1711:A1 1.6 
*END

*D_NET *187 0.00104582
*CONN
*I *1710:C I *D sky130_fd_sc_hd__and3_4
*I *1765:A2 I *D sky130_fd_sc_hd__a21bo_2
*I *1711:A2 I *D sky130_fd_sc_hd__a21oi_2
*I *1709:X O *D sky130_fd_sc_hd__a21o_4
*CAP
1 *1710:C 0.000107356
2 *1765:A2 5.02522e-05
3 *1711:A2 0
4 *1709:X 5.27404e-05
5 *187:13 0.000254528
6 *187:6 0.000149661
7 *1710:C *188:10 0
8 *1710:C *189:16 1.61831e-05
9 *1710:A *1710:C 4.82919e-05
10 *1710:B *1710:C 6.07328e-05
11 *1710:B *187:13 7.60965e-05
12 *1765:A1 *1765:A2 0.000164686
13 *186:23 *1765:A2 6.52906e-05
*RES
1 *1709:X *187:6 2.395 
2 *187:6 *1711:A2 1.6 
3 *187:6 *187:13 1.83 
4 *187:13 *1765:A2 7.49 
5 *187:13 *1710:C 3.79 
*END

*D_NET *188 0.00453055
*CONN
*I *1728:A1 I *D sky130_fd_sc_hd__o21a_4
*I *1727:A I *D sky130_fd_sc_hd__nor3_2
*I *1710:X O *D sky130_fd_sc_hd__and3_4
*CAP
1 *1728:A1 0.000175399
2 *1727:A 0.000105691
3 *1710:X 0.00121012
4 *188:10 0.00149121
5 *1727:A *1727:B 0.000140384
6 *1727:A *1727:C 0
7 *1727:A *1728:A2 9.61344e-05
8 *1727:A *1728:B1 1.70935e-05
9 *1727:A *1745:A1 5.16418e-05
10 *1727:A *469:8 2.75145e-05
11 *1728:A1 *1728:A2 8.38107e-05
12 *1728:A1 *1728:B1 0.00012867
13 *188:10 *1714:A1 4.82919e-05
14 *188:10 *1714:B1 1.19928e-05
15 *188:10 *1720:A 0.000197269
16 *188:10 *1726:B 5.30673e-05
17 *188:10 *1797:A2 6.97202e-05
18 *188:10 *189:16 0.000519628
19 *188:10 *197:8 4.82863e-05
20 *1710:C *188:10 0
21 *1719:A *188:10 2.49909e-05
22 *1726:A *188:10 2.96334e-05
23 *119:19 *1727:A 0
*RES
1 *1710:X *188:10 23.385 
2 *188:10 *1727:A 6.45 
3 *188:10 *1728:A1 7.275 
*END

*D_NET *189 0.00580173
*CONN
*I *1728:A2 I *D sky130_fd_sc_hd__o21a_4
*I *1727:B I *D sky130_fd_sc_hd__nor3_2
*I *1711:Y O *D sky130_fd_sc_hd__a21oi_2
*CAP
1 *1728:A2 0.000148413
2 *1727:B 0.00016502
3 *1711:Y 0.00133648
4 *189:16 0.00164991
5 *1727:B *1745:A1 4.82919e-05
6 *1727:B *469:8 6.32842e-05
7 *1728:A2 *1797:A2 0
8 *189:16 *1714:A1 1.47256e-05
9 *189:16 *1714:B1 4.66108e-05
10 *189:16 *1720:A 9.63694e-05
11 *189:16 *1797:A2 6.46363e-05
12 *189:16 *197:8 2.75145e-05
13 *189:16 *198:8 0.000875573
14 *1710:B *189:16 0.000162311
15 *1710:C *189:16 1.61831e-05
16 *1719:A *189:16 4.66108e-05
17 *1726:A *189:16 0.000199833
18 *1727:A *1727:B 0.000140384
19 *1727:A *1728:A2 9.61344e-05
20 *1728:A1 *1728:A2 8.38107e-05
21 *1797:A1 *1728:A2 0
22 *119:19 *1727:B 0
23 *188:10 *189:16 0.000519628
*RES
1 *1711:Y *189:16 27.06 
2 *189:16 *1727:B 6.915 
3 *189:16 *1728:A2 6.51 
*END

*D_NET *190 0.00115918
*CONN
*I *1800:A1 I *D sky130_fd_sc_hd__a21oi_2
*I *1712:Y O *D sky130_fd_sc_hd__nand2_2
*CAP
1 *1800:A1 0.000194627
2 *1712:Y 0.000194627
3 *1800:A1 *1712:A 4.82863e-05
4 *1800:A1 *1712:B 3.63661e-05
5 *1800:A1 *1798:A 0.00015806
6 *1800:A1 *1798:D 8.23457e-05
7 *1800:A1 *1800:A2 3.09164e-05
8 *1800:A1 *1802:C 4.43871e-06
9 *1800:A1 *1846:B1 1.08758e-05
10 *1800:A1 *1848:B1 5.56629e-05
11 *1800:A1 *273:12 2.8185e-05
12 *1800:A1 *275:10 5.83121e-06
13 *1800:A1 *277:10 9.67482e-05
14 *1800:A1 *383:12 0
15 *1800:A1 *452:51 1.52184e-05
16 *1800:A1 *452:62 5.73518e-05
17 *1800:A1 *469:32 2.8185e-05
18 *1800:A1 *470:37 0.000111455
*RES
1 *1712:Y *1800:A1 13.005 
*END

*D_NET *191 0.0032698
*CONN
*I *1804:A1 I *D sky130_fd_sc_hd__o21a_2
*I *1805:A I *D sky130_fd_sc_hd__nor3_2
*I *1715:A I *D sky130_fd_sc_hd__nor2_2
*I *1713:X O *D sky130_fd_sc_hd__and4_2
*CAP
1 *1804:A1 7.25913e-05
2 *1805:A 0.000182005
3 *1715:A 0
4 *1713:X 0.000135013
5 *191:23 0.000554222
6 *191:10 0.000434639
7 *1804:A1 *195:10 6.80171e-05
8 *1805:A *1717:C 3.05373e-05
9 *1805:A *1804:B1 0
10 *1805:A *279:10 0.00011852
11 *1805:A *279:19 9.50342e-06
12 *1805:A *280:6 0.00012657
13 *191:10 *1713:A 7.58604e-05
14 *191:10 *1714:B2 6.28765e-05
15 *191:10 *1715:B 8.08439e-05
16 *191:10 *451:60 2.76107e-05
17 *191:10 *452:36 0.000178314
18 *191:10 *452:51 0.000187071
19 *191:23 *1715:B 5.53249e-06
20 *191:23 *1717:A 0.000106078
21 *191:23 *1717:B 2.49909e-05
22 *191:23 *1802:A 7.10578e-05
23 *191:23 *1802:B 8.88715e-05
24 *191:23 *279:10 4.43682e-05
25 *191:23 *451:60 6.01819e-05
26 *191:23 *452:51 0.000336765
27 *191:23 *469:32 0.000187759
*RES
1 *1713:X *191:10 8.235 
2 *191:10 *1715:A 3.6 
3 *191:10 *191:23 10.52 
4 *191:23 *1805:A 9.23 
5 *191:23 *1804:A1 3.1 
*END

*D_NET *192 0.000303495
*CONN
*I *1715:B I *D sky130_fd_sc_hd__nor2_2
*I *1714:Y O *D sky130_fd_sc_hd__a22oi_2
*CAP
1 *1715:B 3.69264e-05
2 *1714:Y 3.69264e-05
3 *1715:B *451:60 0.000143266
4 *191:10 *1715:B 8.08439e-05
5 *191:23 *1715:B 5.53249e-06
*RES
1 *1714:Y *1715:B 8.835 
*END

*D_NET *193 0.00119265
*CONN
*I *1717:C I *D sky130_fd_sc_hd__and3_2
*I *1718:A I *D sky130_fd_sc_hd__xnor2_2
*I *1715:Y O *D sky130_fd_sc_hd__nor2_2
*CAP
1 *1717:C 0.000265272
2 *1718:A 0
3 *1715:Y 0.000222738
4 *193:8 0.00048801
5 *1717:C *1717:B 0.000186092
6 *1717:C *1720:B 0
7 *1717:C *470:39 0
8 *1805:A *1717:C 3.05373e-05
*RES
1 *1715:Y *193:8 4.48 
2 *193:8 *1718:A 1.6 
3 *193:8 *1717:C 10.49 
*END

*D_NET *194 0.000453508
*CONN
*I *1718:B I *D sky130_fd_sc_hd__xnor2_2
*I *1716:Y O *D sky130_fd_sc_hd__nand2_2
*CAP
1 *1718:B 6.5735e-05
2 *1716:Y 6.5735e-05
3 *1718:B *1717:B 4.66108e-05
4 *1718:B *1720:B 0.000136877
5 *1718:B *383:12 0.000138551
*RES
1 *1716:Y *1718:B 9.285 
*END

*D_NET *195 0.000718581
*CONN
*I *1805:B I *D sky130_fd_sc_hd__nor3_2
*I *1804:A2 I *D sky130_fd_sc_hd__o21a_2
*I *1717:X O *D sky130_fd_sc_hd__and3_2
*CAP
1 *1805:B 0.000154255
2 *1804:A2 0
3 *1717:X 8.86843e-05
4 *195:10 0.000242939
5 *1805:B *1804:B1 0.000164686
6 *1805:B *1811:A 0
7 *1805:B *281:10 0
8 *1805:B *281:19 0
9 *1804:A1 *195:10 6.80171e-05
*RES
1 *1717:X *195:10 3.46 
2 *195:10 *1804:A2 1.6 
3 *195:10 *1805:B 8.63 
*END

*D_NET *196 0.000573874
*CONN
*I *1807:A2 I *D sky130_fd_sc_hd__a21oi_2
*I *1719:B I *D sky130_fd_sc_hd__xnor2_2
*I *1718:Y O *D sky130_fd_sc_hd__xnor2_2
*CAP
1 *1807:A2 0
2 *1719:B 8.86103e-05
3 *1718:Y 0.000110989
4 *196:6 0.000199599
5 *1719:B *1721:A 0
6 *1719:B *1722:A 0
7 *1719:B *1807:A1 8.97564e-05
8 *196:6 *1807:A1 8.49205e-05
*RES
1 *1718:Y *196:6 3.43 
2 *196:6 *1719:B 7.49 
3 *196:6 *1807:A2 1.6 
*END

*D_NET *197 0.000927843
*CONN
*I *1721:A I *D sky130_fd_sc_hd__nor2_2
*I *1722:A I *D sky130_fd_sc_hd__and2_2
*I *1719:Y O *D sky130_fd_sc_hd__xnor2_2
*CAP
1 *1721:A 9.24638e-05
2 *1722:A 0.000144803
3 *1719:Y 1.17533e-05
4 *197:8 0.00024902
5 *1721:A *1807:B1 0.000160658
6 *1721:A *352:13 1.26626e-05
7 *1722:A *1723:B 5.33085e-05
8 *1722:A *1807:A1 0
9 *1722:A *1807:B1 0.000127373
10 *1722:A *496:10 0
11 *1719:B *1721:A 0
12 *1719:B *1722:A 0
13 *188:10 *197:8 4.82863e-05
14 *189:16 *197:8 2.75145e-05
*RES
1 *1719:Y *197:8 4.05 
2 *197:8 *1722:A 6.195 
3 *197:8 *1721:A 5.745 
*END

*D_NET *198 0.00317833
*CONN
*I *1721:B I *D sky130_fd_sc_hd__nor2_2
*I *1722:B I *D sky130_fd_sc_hd__and2_2
*I *1720:X O *D sky130_fd_sc_hd__and2_2
*CAP
1 *1721:B 6.33098e-05
2 *1722:B 0.000116615
3 *1720:X 0.000581573
4 *198:8 0.000761497
5 *1721:B *1797:B1 0
6 *1721:B *199:8 0.00022921
7 *1721:B *352:13 0.000243758
8 *1722:B *1724:C 4.82919e-05
9 *1722:B *199:8 9.37731e-05
10 *1722:B *200:20 4.66108e-05
11 *1722:B *352:13 9.14049e-05
12 *1722:B *469:8 2.67184e-05
13 *189:16 *198:8 0.000875573
*RES
1 *1720:X *198:8 11.64 
2 *198:8 *1722:B 6.225 
3 *198:8 *1721:B 6.51 
*END

*D_NET *199 0.00122182
*CONN
*I *1724:B I *D sky130_fd_sc_hd__or3_2
*I *1723:A I *D sky130_fd_sc_hd__nor2_2
*I *1721:Y O *D sky130_fd_sc_hd__nor2_2
*CAP
1 *1724:B 0
2 *1723:A 6.80188e-05
3 *1721:Y 0.000117883
4 *199:8 0.000185902
5 *1723:A *352:13 7.55391e-05
6 *199:8 *1797:B1 6.23206e-05
7 *199:8 *352:13 4.21256e-05
8 *1721:B *199:8 0.00022921
9 *1722:B *199:8 9.37731e-05
10 *1725:A *199:8 0.00017688
11 *114:23 *1723:A 9.54469e-05
12 *114:23 *199:8 7.47215e-05
13 *119:19 *1723:A 0
*RES
1 *1721:Y *199:8 8.295 
2 *199:8 *1723:A 5.235 
3 *199:8 *1724:B 3.6 
*END

*D_NET *200 0.00198354
*CONN
*I *1807:B1 I *D sky130_fd_sc_hd__a21oi_2
*I *1723:B I *D sky130_fd_sc_hd__nor2_2
*I *1724:C I *D sky130_fd_sc_hd__or3_2
*I *1722:X O *D sky130_fd_sc_hd__and2_2
*CAP
1 *1807:B1 0.000133683
2 *1723:B 0.000195875
3 *1724:C 3.14582e-05
4 *1722:X 6.8417e-05
5 *200:20 0.000366516
6 *1723:B *352:13 0.000225182
7 *1723:B *496:10 0
8 *1724:C *469:8 4.80285e-05
9 *1807:B1 *284:10 3.03684e-05
10 *1807:B1 *352:13 0.000289698
11 *1637:B *1723:B 0
12 *1721:A *1807:B1 0.000160658
13 *1722:A *1723:B 5.33085e-05
14 *1722:A *1807:B1 0.000127373
15 *1722:B *1724:C 4.82919e-05
16 *1722:B *200:20 4.66108e-05
17 *114:23 *1723:B 0.000158072
*RES
1 *1722:X *1724:C 3.995 
2 *1722:X *200:20 4.05 
3 *200:20 *1723:B 8.1 
4 *200:20 *1807:B1 7.815 
*END

*D_NET *201 0.000695976
*CONN
*I *1725:B I *D sky130_fd_sc_hd__xor2_2
*I *1723:Y O *D sky130_fd_sc_hd__nor2_2
*CAP
1 *1725:B 0.00012591
2 *1723:Y 0.00012591
3 *1725:B *1797:B1 0.000117832
4 *1725:A *1725:B 0.000163992
5 *114:23 *1725:B 0.000162332
6 *119:19 *1725:B 0
*RES
1 *1723:Y *1725:B 9.275 
*END

*D_NET *202 0.000621883
*CONN
*I *1797:B1 I *D sky130_fd_sc_hd__o21ai_2
*I *1724:X O *D sky130_fd_sc_hd__or3_2
*CAP
1 *1797:B1 0.000205454
2 *1724:X 0.000205454
3 *1797:B1 *1797:A2 0
4 *1797:B1 *469:8 1.7386e-05
5 *1721:B *1797:B1 0
6 *1725:A *1797:B1 1.34361e-05
7 *1725:B *1797:B1 0.000117832
8 *1797:A1 *1797:B1 0
9 *119:19 *1797:B1 0
10 *199:8 *1797:B1 6.23206e-05
*RES
1 *1724:X *1797:B1 11.325 
*END

*D_NET *203 0.000717328
*CONN
*I *1726:B I *D sky130_fd_sc_hd__xnor2_2
*I *1797:A2 I *D sky130_fd_sc_hd__o21ai_2
*I *1725:X O *D sky130_fd_sc_hd__xor2_2
*CAP
1 *1726:B 1.16945e-05
2 *1797:A2 0.000139207
3 *1725:X 0
4 *203:4 0.000150902
5 *1726:A *1726:B 7.66083e-05
6 *1726:A *1797:A2 4.82919e-05
7 *1728:A2 *1797:A2 0
8 *1797:A1 *1797:A2 0.0001032
9 *1797:B1 *1797:A2 0
10 *188:10 *1726:B 5.30673e-05
11 *188:10 *1797:A2 6.97202e-05
12 *189:16 *1797:A2 6.46363e-05
*RES
1 *1725:X *203:4 1.6 
2 *203:4 *1797:A2 9.14 
3 *203:4 *1726:B 2.395 
*END

*D_NET *204 0.000889461
*CONN
*I *1727:C I *D sky130_fd_sc_hd__nor3_2
*I *1728:B1 I *D sky130_fd_sc_hd__o21a_4
*I *1726:Y O *D sky130_fd_sc_hd__xnor2_2
*CAP
1 *1727:C 0.000105457
2 *1728:B1 0.000185646
3 *1726:Y 2.946e-05
4 *204:6 0.000320563
5 *1727:C *1814:A_N 1.1561e-05
6 *1727:C *205:26 8.08439e-05
7 *1727:C *222:8 1.01661e-05
8 *1728:B1 *1814:A_N 0
9 *1728:B1 *241:8 0
10 *1727:A *1727:C 0
11 *1727:A *1728:B1 1.70935e-05
12 *1728:A1 *1728:B1 0.00012867
*RES
1 *1726:Y *204:6 2.05 
2 *204:6 *1728:B1 8.975 
3 *204:6 *1727:C 7.745 
*END

*D_NET *205 0.00154106
*CONN
*I *1814:A_N I *D sky130_fd_sc_hd__and2b_2
*I *1744:A I *D sky130_fd_sc_hd__or3_4
*I *1745:A1 I *D sky130_fd_sc_hd__o21ai_2
*I *1727:Y O *D sky130_fd_sc_hd__nor3_2
*CAP
1 *1814:A_N 0.000127322
2 *1744:A 0.000145051
3 *1745:A1 0.000200751
4 *1727:Y 0.000239457
5 *205:26 0.00031108
6 *1744:A *1744:B 6.97202e-05
7 *1745:A1 *1747:A1 5.53249e-06
8 *1745:A1 *222:8 0
9 *1814:A_N *206:16 2.75229e-05
10 *1814:A_N *241:8 9.05377e-05
11 *205:26 *222:8 0.000120186
12 *205:26 *241:8 1.1561e-05
13 *1727:A *1745:A1 5.16418e-05
14 *1727:B *1745:A1 4.82919e-05
15 *1727:C *1814:A_N 1.1561e-05
16 *1727:C *205:26 8.08439e-05
17 *1728:B1 *1814:A_N 0
18 *119:19 *1745:A1 0
*RES
1 *1727:Y *1745:A1 10.305 
2 *1727:Y *205:26 5.235 
3 *205:26 *1744:A 5.775 
4 *205:26 *1814:A_N 6.3 
*END

*D_NET *206 0.000953941
*CONN
*I *2095:A I *D sky130_fd_sc_hd__buf_2
*I *1744:C I *D sky130_fd_sc_hd__or3_4
*I *1728:X O *D sky130_fd_sc_hd__o21a_4
*CAP
1 *2095:A 3.02564e-05
2 *1744:C 0
3 *1728:X 0.000298575
4 *206:16 0.000328831
5 *206:16 *1744:B 4.82919e-05
6 *206:16 *1866:B 0
7 *206:16 *2076:A 8.97564e-05
8 *206:16 *291:10 2.75145e-05
9 y[4] *206:16 0.000103192
10 *1814:A_N *206:16 2.75229e-05
*RES
1 *1728:X *206:16 11.42 
2 *206:16 *1744:C 1.6 
3 *206:16 *2095:A 2.05 
*END

*D_NET *207 0.000669697
*CONN
*I *1754:A1 I *D sky130_fd_sc_hd__a21oi_2
*I *1729:Y O *D sky130_fd_sc_hd__nand2_2
*CAP
1 *1754:A1 0.000132087
2 *1729:Y 0.000132087
3 *1754:A1 *1729:B 5.83121e-06
4 *1754:A1 *1756:B 0
5 *1754:A1 *1756:C 1.16578e-05
6 *1754:A1 *1757:A 9.86611e-05
7 *1754:A1 *230:23 5.83121e-06
8 *1754:A1 *234:30 2.67184e-05
9 *1754:A1 *448:34 0.000120655
10 *1754:A1 *465:24 0.000136168
*RES
1 *1729:Y *1754:A1 10.935 
*END

*D_NET *208 0.00285392
*CONN
*I *1758:A1 I *D sky130_fd_sc_hd__o21a_2
*I *1759:A I *D sky130_fd_sc_hd__nor3_2
*I *1733:B_N I *D sky130_fd_sc_hd__and4bb_2
*I *1732:B1 I *D sky130_fd_sc_hd__o2bb2a_2
*I *1730:X O *D sky130_fd_sc_hd__and3_2
*CAP
1 *1758:A1 0
2 *1759:A 9.86797e-05
3 *1733:B_N 0
4 *1732:B1 0.000266158
5 *1730:X 0.000438917
6 *208:34 0.000153953
7 *208:25 5.52729e-05
8 *208:10 0.000705075
9 *1732:B1 *1732:A1_N 0.000120436
10 *1732:B1 *1732:A2_N 2.36716e-05
11 *1732:B1 *1734:B 0
12 *1732:B1 *447:80 1.70935e-05
13 *1732:B1 *501:12 0
14 *1759:A *1758:B1 4.82919e-05
15 *1759:A *1759:B 0.000240149
16 *1759:A *1759:C 2.14358e-05
17 *1759:A *211:8 1.12578e-05
18 *1759:A *235:10 8.65961e-05
19 *208:10 *1649:B 2.16389e-05
20 *208:10 *2086:A 0
21 *208:10 *234:30 0.000142759
22 *208:10 *447:80 0.00010501
23 *208:10 *501:12 0
24 *208:34 *1759:B 3.26889e-05
25 *208:34 *211:8 0.0001249
26 *1650:A *208:10 0.000139933
*RES
1 *1730:X *208:10 10.665 
2 *208:10 *1732:B1 8.28 
3 *208:10 *208:25 2 
4 *208:25 *1733:B_N 1.6 
5 *208:25 *208:34 1.5 
6 *208:34 *1759:A 4.945 
7 *208:34 *1758:A1 1.6 
*END

*D_NET *209 0.0011348
*CONN
*I *1732:B2 I *D sky130_fd_sc_hd__o2bb2a_2
*I *1733:A_N I *D sky130_fd_sc_hd__and4bb_2
*I *1731:Y O *D sky130_fd_sc_hd__a21oi_2
*CAP
1 *1732:B2 0.000131274
2 *1733:A_N 2.08101e-05
3 *1731:Y 0.000234605
4 *209:6 0.000386689
5 *1732:B2 *1732:A2_N 7.67353e-05
6 *1732:B2 *211:8 1.4389e-05
7 *1732:B2 *519:10 0
8 *209:6 *1646:A 6.32842e-05
9 *209:6 *1731:A1 0.000108761
10 y[0] *209:6 4.82919e-05
11 *1731:B1 *209:6 4.99619e-05
*RES
1 *1731:Y *209:6 5.845 
2 *209:6 *1733:A_N 1.96 
3 *209:6 *1732:B2 7.865 
*END

*D_NET *210 0.000222357
*CONN
*I *1734:A I *D sky130_fd_sc_hd__nor2_2
*I *1732:X O *D sky130_fd_sc_hd__o2bb2a_2
*CAP
1 *1734:A 0.000111178
2 *1732:X 0.000111178
*RES
1 *1732:X *1734:A 4.955 
*END

*D_NET *211 0.00173995
*CONN
*I *2086:A I *D sky130_fd_sc_hd__buf_2
*I *1734:B I *D sky130_fd_sc_hd__nor2_2
*I *1733:X O *D sky130_fd_sc_hd__and4bb_2
*CAP
1 *2086:A 7.03769e-05
2 *1734:B 0.000181733
3 *1733:X 0.000341223
4 *211:8 0.000593333
5 *1734:B *1732:A1_N 0
6 *1734:B *212:10 0
7 *1734:B *234:30 3.67779e-05
8 *1734:B *501:12 2.78732e-05
9 *2086:A *234:30 6.10014e-05
10 *2086:A *501:12 5.98537e-05
11 *211:8 *1733:D 8.40269e-05
12 *211:8 *1759:B 8.49205e-05
13 *1732:B1 *1734:B 0
14 *1732:B2 *211:8 1.4389e-05
15 *1735:A *2086:A 4.82863e-05
16 *1759:A *211:8 1.12578e-05
17 *208:10 *2086:A 0
18 *208:34 *211:8 0.0001249
*RES
1 *1733:X *211:8 7.845 
2 *211:8 *1734:B 6.51 
3 *211:8 *2086:A 5.43 
*END

*D_NET *212 0.00107309
*CONN
*I *1736:B I *D sky130_fd_sc_hd__xnor2_2
*I *1735:B I *D sky130_fd_sc_hd__and2_2
*I *1734:Y O *D sky130_fd_sc_hd__nor2_2
*CAP
1 *1736:B 0.000131053
2 *1735:B 0
3 *1734:Y 0.000405491
4 *212:10 0.000536544
5 *1736:B *234:30 0
6 *1736:B *235:14 0
7 *212:10 *234:30 0
8 *212:10 *235:14 0
9 *1734:B *212:10 0
*RES
1 *1734:Y *212:10 9.36 
2 *212:10 *1735:B 3.6 
3 *212:10 *1736:B 5.745 
*END

*D_NET *213 0.00100527
*CONN
*I *1761:A1 I *D sky130_fd_sc_hd__o21a_2
*I *1762:A I *D sky130_fd_sc_hd__nor3_2
*I *1735:X O *D sky130_fd_sc_hd__and2_2
*CAP
1 *1761:A1 0
2 *1762:A 0.000113158
3 *1735:X 0.000216903
4 *213:6 0.000330061
5 *1762:A *1738:B 9.50342e-06
6 *1762:A *1761:A2 0
7 *1762:A *1762:C 6.5265e-05
8 *1762:A *216:8 5.05521e-05
9 *1762:A *237:10 1.22762e-05
10 *1762:A *238:10 8.26527e-05
11 *213:6 *238:10 0.0001249
*RES
1 *1735:X *213:6 5.155 
2 *213:6 *1762:A 8.795 
3 *213:6 *1761:A1 1.6 
*END

*D_NET *214 0.000716905
*CONN
*I *1738:A I *D sky130_fd_sc_hd__nor2_2
*I *1739:A I *D sky130_fd_sc_hd__and2_4
*I *1736:Y O *D sky130_fd_sc_hd__xnor2_2
*CAP
1 *1738:A 0
2 *1739:A 0.000109113
3 *1736:Y 8.34939e-05
4 *214:6 0.000192607
5 *1739:A *1738:B 0.000116853
6 *1739:A *1739:B 2.75229e-05
7 *1739:A *215:6 2.49909e-05
8 *1739:A *217:10 0
9 *1739:A *238:10 0.000162325
*RES
1 *1736:Y *214:6 2.74 
2 *214:6 *1739:A 8.285 
3 *214:6 *1738:A 1.6 
*END

*D_NET *215 0.00387985
*CONN
*I *1739:B I *D sky130_fd_sc_hd__and2_4
*I *1738:B I *D sky130_fd_sc_hd__nor2_2
*I *1737:X O *D sky130_fd_sc_hd__and2_2
*CAP
1 *1739:B 9.57541e-05
2 *1738:B 6.01457e-05
3 *1737:X 0.00140908
4 *215:6 0.00156498
5 *1738:B *217:10 0
6 *1739:B *1741:C 0
7 *215:6 *1648:A2 3.93607e-05
8 *215:6 *1648:B1 0.000120655
9 *215:6 *1649:A 0.000125284
10 *215:6 *1737:A 4.88541e-05
11 *215:6 *455:34 1.91597e-05
12 *1650:C_N *215:6 2.36527e-05
13 *1651:B1_N *215:6 0.000173045
14 *1739:A *1738:B 0.000116853
15 *1739:A *1739:B 2.75229e-05
16 *1739:A *215:6 2.49909e-05
17 *1762:A *1738:B 9.50342e-06
18 *127:8 *215:6 2.10034e-05
*RES
1 *1737:X *215:6 18.265 
2 *215:6 *1738:B 6.98 
3 *215:6 *1739:B 3.01 
*END

*D_NET *216 0.0023332
*CONN
*I *1741:B I *D sky130_fd_sc_hd__or3_4
*I *1740:A I *D sky130_fd_sc_hd__nor2_4
*I *1738:Y O *D sky130_fd_sc_hd__nor2_2
*CAP
1 *1741:B 0.000336148
2 *1740:A 3.70605e-05
3 *1738:Y 0.000520982
4 *216:8 0.00089419
5 *1740:A *1742:A 4.43871e-06
6 *1740:A *240:8 0
7 *1741:B *1742:A 9.05299e-05
8 *1741:B *1751:B1 0
9 *1741:B *240:8 0
10 *216:8 *1740:B 0.000176511
11 *216:8 *1762:C 2.8185e-05
12 *216:8 *1763:B 0.000124895
13 *1741:A *1741:B 6.97034e-05
14 *1762:A *216:8 5.05521e-05
*RES
1 *1738:Y *216:8 10.26 
2 *216:8 *1740:A 4.215 
3 *216:8 *1741:B 9.045 
*END

*D_NET *217 0.00164043
*CONN
*I *1741:C I *D sky130_fd_sc_hd__or3_4
*I *1740:B I *D sky130_fd_sc_hd__nor2_4
*I *1762:B I *D sky130_fd_sc_hd__nor3_2
*I *1761:A2 I *D sky130_fd_sc_hd__o21a_2
*I *1739:X O *D sky130_fd_sc_hd__and2_4
*CAP
1 *1741:C 7.36133e-05
2 *1740:B 0.000155109
3 *1762:B 0
4 *1761:A2 0.000183824
5 *1739:X 0
6 *217:23 0.000155109
7 *217:10 0.000325162
8 *217:4 0.000214951
9 *1740:B *1762:C 8.65961e-05
10 *1740:B *1763:B 0.000124895
11 *1761:A2 *1762:C 7.71016e-05
12 *1761:A2 *1763:A 7.00889e-06
13 *1761:A2 *1763:B 0
14 *1761:A2 *238:10 6.05513e-05
15 *217:10 *1763:B 0
16 *217:10 *240:8 0
17 *1738:B *217:10 0
18 *1739:A *217:10 0
19 *1739:B *1741:C 0
20 *1762:A *1761:A2 0
21 *216:8 *1740:B 0.000176511
*RES
1 *1739:X *217:4 1.6 
2 *217:4 *217:10 4.085 
3 *217:10 *1761:A2 6.975 
4 *217:10 *217:23 2 
5 *217:23 *1762:B 1.6 
6 *217:23 *1740:B 5.5 
7 *217:4 *1741:C 2.755 
*END

*D_NET *218 0.000481023
*CONN
*I *1742:A I *D sky130_fd_sc_hd__xor2_4
*I *1740:Y O *D sky130_fd_sc_hd__nor2_4
*CAP
1 *1742:A 0.000193027
2 *1740:Y 0.000193027
3 *1742:A *1751:B1 0
4 *1740:A *1742:A 4.43871e-06
5 *1741:B *1742:A 9.05299e-05
*RES
1 *1740:Y *1742:A 10.875 
*END

*D_NET *219 0.00061
*CONN
*I *1751:B1 I *D sky130_fd_sc_hd__o21ai_4
*I *1741:X O *D sky130_fd_sc_hd__or3_4
*CAP
1 *1751:B1 0.000168813
2 *1741:X 0.000168813
3 *1751:B1 *1764:B 8.44567e-05
4 *1741:A *1751:B1 0.000135893
5 *1741:B *1751:B1 0
6 *1742:A *1751:B1 0
7 *1742:B *1751:B1 5.20249e-05
*RES
1 *1741:X *1751:B1 11.13 
*END

*D_NET *220 0.000658321
*CONN
*I *1743:A I *D sky130_fd_sc_hd__xnor2_2
*I *2090:A I *D sky130_fd_sc_hd__buf_2
*I *1742:X O *D sky130_fd_sc_hd__xor2_4
*CAP
1 *1743:A 0.000231029
2 *2090:A 0
3 *1742:X 9.81319e-05
4 *220:6 0.000329161
*RES
1 *1742:X *220:6 3.635 
2 *220:6 *2090:A 3.6 
3 *220:6 *1743:A 7.14 
*END

*D_NET *221 0.0051421
*CONN
*I *1744:B I *D sky130_fd_sc_hd__or3_4
*I *1745:B1 I *D sky130_fd_sc_hd__o21ai_2
*I *1743:Y O *D sky130_fd_sc_hd__xnor2_2
*CAP
1 *1744:B 0.000303683
2 *1745:B1 0.000249509
3 *1743:Y 0.000640995
4 *221:8 0.00119419
5 *1744:B *1814:B 3.09164e-05
6 *1744:B *1817:A2 2.7881e-05
7 *1744:B *1866:B 0
8 *1744:B *2076:A 0
9 *1744:B *241:8 0.00043969
10 *1745:B1 *1746:C1 9.80943e-06
11 *1745:B1 *1817:B1 0.000216984
12 *1745:B1 *223:6 3.64998e-06
13 *1745:B1 *224:6 4.82863e-05
14 *221:8 *1764:B 0.000216327
15 *221:8 *1817:A1 8.27265e-05
16 *221:8 *1817:A2 5.2089e-05
17 *221:8 *1864:A 6.47357e-05
18 *221:8 *1866:B 0
19 *221:8 *227:8 0.000205127
20 *221:8 *241:8 0.00115139
21 y[4] *1744:B 8.6099e-05
22 *1744:A *1744:B 6.97202e-05
23 *206:16 *1744:B 4.82919e-05
*RES
1 *1743:Y *221:8 21.555 
2 *221:8 *1745:B1 6.825 
3 *221:8 *1744:B 10.635 
*END

*D_NET *222 0.00205043
*CONN
*I *1814:B I *D sky130_fd_sc_hd__and2b_2
*I *1746:B1 I *D sky130_fd_sc_hd__o211a_2
*I *1747:A2 I *D sky130_fd_sc_hd__a211o_4
*I *1744:X O *D sky130_fd_sc_hd__or3_4
*CAP
1 *1814:B 3.89461e-05
2 *1746:B1 0
3 *1747:A2 0.000158608
4 *1744:X 0.000168662
5 *222:8 0.000288324
6 *1747:A2 *1748:B 0.00027209
7 *1747:A2 *241:8 0.000183043
8 *1814:B *241:8 6.18754e-05
9 *222:8 *1747:A1 0
10 *222:8 *241:8 0.000339198
11 y[4] *1814:B 0.000140912
12 *1727:C *222:8 1.01661e-05
13 *1744:B *1814:B 3.09164e-05
14 *1745:A1 *222:8 0
15 *1746:A2 *1747:A2 0.000159964
16 *1747:C1 *1747:A2 4.82863e-05
17 *138:8 *1747:A2 2.92496e-05
18 *205:26 *222:8 0.000120186
*RES
1 *1744:X *222:8 7.53 
2 *222:8 *1747:A2 8.265 
3 *222:8 *1746:B1 3.6 
4 *1744:X *1814:B 8.835 
*END

*D_NET *223 0.00109173
*CONN
*I *1746:C1 I *D sky130_fd_sc_hd__o211a_2
*I *1747:A1 I *D sky130_fd_sc_hd__a211o_4
*I *1745:Y O *D sky130_fd_sc_hd__o21ai_2
*CAP
1 *1746:C1 0.000102293
2 *1747:A1 0.000117726
3 *1745:Y 1.96038e-05
4 *223:6 0.000239623
5 *1746:C1 *1745:A2 0.000309607
6 *1746:C1 *1817:B1 0.000118628
7 *1746:C1 *224:6 2.75145e-05
8 *1747:A1 *1748:A_N 7.81876e-05
9 *223:6 *1745:A2 4.82863e-05
10 *1745:A1 *1747:A1 5.53249e-06
11 *1745:B1 *1746:C1 9.80943e-06
12 *1745:B1 *223:6 3.64998e-06
13 *1746:A1 *1746:C1 1.12643e-05
14 *1746:A1 *1747:A1 0
15 *119:19 *1747:A1 0
16 *222:8 *1747:A1 0
*RES
1 *1745:Y *223:6 2.05 
2 *223:6 *1747:A1 7.745 
3 *223:6 *1746:C1 4.825 
*END

*D_NET *224 0.00180137
*CONN
*I *1817:B1 I *D sky130_fd_sc_hd__a21o_4
*I *1748:A_N I *D sky130_fd_sc_hd__nand2b_4
*I *1746:X O *D sky130_fd_sc_hd__o211a_2
*CAP
1 *1817:B1 0.000237455
2 *1748:A_N 0.000165777
3 *1746:X 1.17533e-05
4 *224:6 0.000414986
5 *1748:A_N *1748:B 0
6 *1748:A_N *1750:B 4.66108e-05
7 *1817:B1 *1745:A2 0.000103462
8 *1659:A *1748:A_N 4.82863e-05
9 *1745:B1 *1817:B1 0.000216984
10 *1745:B1 *224:6 4.82863e-05
11 *1746:A1 *1748:A_N 7.07722e-05
12 *1746:A1 *1817:B1 1.12643e-05
13 *1746:C1 *1817:B1 0.000118628
14 *1746:C1 *224:6 2.75145e-05
15 *1747:A1 *1748:A_N 7.81876e-05
16 *122:39 *1748:A_N 0.0002014
*RES
1 *1746:X *224:6 2.05 
2 *224:6 *1748:A_N 9.98 
3 *224:6 *1817:B1 6.55 
*END

*D_NET *225 0.000550388
*CONN
*I *2085:A I *D sky130_fd_sc_hd__buf_6
*I *1817:A2 I *D sky130_fd_sc_hd__a21o_4
*I *1747:X O *D sky130_fd_sc_hd__a211o_4
*CAP
1 *2085:A 5.64352e-05
2 *1817:A2 7.65088e-05
3 *1747:X 0
4 *225:4 0.000132944
5 *1817:A2 *1748:B 1.47256e-05
6 *1817:A2 *1817:A1 0.000139252
7 *2085:A *1748:B 5.05521e-05
8 *1744:B *1817:A2 2.7881e-05
9 *221:8 *1817:A2 5.2089e-05
*RES
1 *1747:X *225:4 1.6 
2 *225:4 *1817:A2 7.685 
3 *225:4 *2085:A 2.755 
*END

*D_NET *226 0.00056243
*CONN
*I *1750:B I *D sky130_fd_sc_hd__xnor2_2
*I *1748:Y O *D sky130_fd_sc_hd__nand2b_4
*CAP
1 *1750:B 0.000224034
2 *1748:Y 0.000224034
3 *1659:A *1750:B 6.77501e-05
4 *1748:A_N *1750:B 4.66108e-05
*RES
1 *1748:Y *1750:B 6.755 
*END

*D_NET *227 0.00137717
*CONN
*I *1817:A1 I *D sky130_fd_sc_hd__a21o_4
*I *1750:A I *D sky130_fd_sc_hd__xnor2_2
*I *1749:X O *D sky130_fd_sc_hd__a21o_2
*CAP
1 *1817:A1 0.000212991
2 *1750:A 0
3 *1749:X 0.00026204
4 *227:8 0.000475031
5 *1817:A1 *1866:B 0
6 *227:8 *1866:B 0
7 *1817:A2 *1817:A1 0.000139252
8 *2052:A *227:8 0
9 *221:8 *1817:A1 8.27265e-05
10 *221:8 *227:8 0.000205127
*RES
1 *1749:X *227:8 9.315 
2 *227:8 *1750:A 3.6 
3 *227:8 *1817:A1 7.785 
*END

*D_NET *228 0.00289211
*CONN
*I *1764:A I *D sky130_fd_sc_hd__xor2_2
*I *1874:A1 I *D sky130_fd_sc_hd__a21o_2
*I *1863:A1 I *D sky130_fd_sc_hd__a21oi_2
*I *1751:Y O *D sky130_fd_sc_hd__o21ai_4
*CAP
1 *1764:A 0.000236921
2 *1874:A1 0.000300114
3 *1863:A1 0.000121685
4 *1751:Y 0
5 *228:8 0.000683654
6 *228:4 0.000498776
7 *1764:A *1764:B 0.000191781
8 *1764:A *1866:B 6.73751e-05
9 *1863:A1 *1864:B 0.000155614
10 *1874:A1 *1862:A 3.0933e-05
11 *1874:A1 *1862:B 0.00012398
12 *1874:A1 *1864:B 0.000179579
13 *1874:A1 *337:34 2.21074e-05
14 *228:8 *1751:A2 0.000159722
15 *134:12 *228:8 0.000119873
*RES
1 *1751:Y *228:4 1.6 
2 *228:4 *228:8 6.245 
3 *228:8 *1863:A1 6 
4 *228:8 *1874:A1 9.3 
5 *228:4 *1764:A 11.315 
*END

*D_NET *229 0.00119583
*CONN
*I *1860:A I *D sky130_fd_sc_hd__or3_2
*I *1859:A1 I *D sky130_fd_sc_hd__o21ai_2
*I *1754:B1 I *D sky130_fd_sc_hd__a21oi_2
*I *1752:X O *D sky130_fd_sc_hd__and3_2
*CAP
1 *1860:A 0
2 *1859:A1 3.52997e-05
3 *1754:B1 3.84491e-05
4 *1752:X 0.000376882
5 *229:22 0.000373732
6 *1754:B1 *465:24 8.57024e-05
7 *1859:A1 *1860:B 2.88357e-05
8 *1859:A1 *1860:C 2.88357e-05
9 *229:22 *1908:A1 0
10 *229:22 *447:35 0
11 *229:22 *455:34 0
12 *229:22 *466:38 0.000143655
13 *124:10 *229:22 8.44359e-05
*RES
1 *1752:X *1754:B1 3.995 
2 *1752:X *229:22 11.06 
3 *229:22 *1859:A1 2.395 
4 *229:22 *1860:A 1.6 
*END

*D_NET *230 0.00224706
*CONN
*I *1908:A1 I *D sky130_fd_sc_hd__a21o_2
*I *1858:A1 I *D sky130_fd_sc_hd__o21a_2
*I *1871:C I *D sky130_fd_sc_hd__and3_2
*I *1754:A2 I *D sky130_fd_sc_hd__a21oi_2
*I *1753:Y O *D sky130_fd_sc_hd__nand2_2
*CAP
1 *1908:A1 0.0001958
2 *1858:A1 0.000174905
3 *1871:C 0
4 *1754:A2 8.50889e-05
5 *1753:Y 2.55105e-05
6 *230:25 0.000174905
7 *230:23 0.0003421
8 *230:6 0.000256899
9 *1754:A2 *1756:B 0
10 *1754:A2 *233:8 7.36562e-05
11 *1754:A2 *233:23 1.71013e-05
12 *1754:A2 *465:24 0.000162318
13 *1858:A1 *1858:A2 2.49909e-05
14 *1858:A1 *334:12 1.34594e-05
15 *1858:A1 *449:40 8.65961e-05
16 *1858:A1 *449:48 4.89503e-05
17 *1858:A1 *466:38 0
18 *1858:A1 *466:42 9.53428e-06
19 *1858:A1 *466:52 7.35729e-05
20 *1908:A1 *1872:B 0.000130257
21 *1908:A1 *334:12 7.15997e-05
22 *1908:A1 *335:12 9.37846e-05
23 *1908:A1 *449:40 0
24 *1908:A1 *466:38 0
25 *1908:A1 *466:52 1.16074e-05
26 *230:6 *1757:B 4.82863e-05
27 *230:23 *1757:B 7.57202e-05
28 *230:23 *233:23 0
29 *230:23 *448:34 9.80032e-06
30 *230:23 *449:48 3.18137e-05
31 *230:23 *449:50 2.97004e-06
32 *230:23 *466:38 0
33 *1754:A1 *230:23 5.83121e-06
34 *229:22 *1908:A1 0
*RES
1 *1753:Y *230:6 2.05 
2 *230:6 *1754:A2 8 
3 *230:6 *230:23 4.52 
4 *230:23 *230:25 2 
5 *230:25 *1871:C 1.6 
6 *230:25 *1858:A1 5.17 
7 *230:23 *1908:A1 7.53 
*END

*D_NET *231 0.000599394
*CONN
*I *1756:C I *D sky130_fd_sc_hd__and3_2
*I *1755:B1 I *D sky130_fd_sc_hd__a21oi_2
*I *1754:Y O *D sky130_fd_sc_hd__a21oi_2
*CAP
1 *1756:C 0.000155169
2 *1755:B1 0.000127184
3 *1754:Y 0
4 *231:4 0.000282353
5 *1755:B1 *1756:B 0
6 *1755:B1 *1757:A 0
7 *1755:B1 *466:38 0
8 *1756:C *465:24 2.30292e-05
9 *1754:A1 *1756:C 1.16578e-05
*RES
1 *1754:Y *231:4 1.6 
2 *231:4 *1755:B1 7.43 
3 *231:4 *1756:C 4.135 
*END

*D_NET *232 0.00062649
*CONN
*I *1757:A I *D sky130_fd_sc_hd__nor2_2
*I *1755:Y O *D sky130_fd_sc_hd__a21oi_2
*CAP
1 *1757:A 0.00014005
2 *1755:Y 0.00014005
3 *1757:A *1756:B 0
4 *1757:A *449:50 6.45236e-05
5 *1757:A *449:56 9.71067e-05
6 *1757:A *466:38 8.6099e-05
7 *1754:A1 *1757:A 9.86611e-05
8 *1755:B1 *1757:A 0
*RES
1 *1755:Y *1757:A 10.875 
*END

*D_NET *233 0.00213157
*CONN
*I *1859:A2 I *D sky130_fd_sc_hd__o21ai_2
*I *1860:B I *D sky130_fd_sc_hd__or3_2
*I *1757:B I *D sky130_fd_sc_hd__nor2_2
*I *1756:X O *D sky130_fd_sc_hd__and3_2
*CAP
1 *1859:A2 1.65323e-05
2 *1860:B 0.000120616
3 *1757:B 4.30446e-05
4 *1756:X 6.81003e-05
5 *233:23 0.000397176
6 *233:8 0.000371173
7 *1757:B *448:34 2.16917e-05
8 *1757:B *465:24 0.000120655
9 *1859:A2 *1860:C 1.26945e-05
10 *1860:B *1860:C 1.90907e-05
11 *233:8 *1756:B 5.53249e-06
12 *233:8 *448:34 5.16418e-05
13 *233:23 *1858:A2 2.50325e-05
14 *233:23 *1858:B1 0.000116211
15 *233:23 *1860:C 0.00014123
16 *233:23 *448:28 8.75607e-05
17 *233:23 *449:40 0.000250823
18 *233:23 *466:52 1.91597e-05
19 *1754:A2 *233:8 7.36562e-05
20 *1754:A2 *233:23 1.71013e-05
21 *1859:A1 *1860:B 2.88357e-05
22 *230:6 *1757:B 4.82863e-05
23 *230:23 *1757:B 7.57202e-05
24 *230:23 *233:23 0
*RES
1 *1756:X *233:8 5.235 
2 *233:8 *1757:B 5.085 
3 *233:8 *233:23 8.45 
4 *233:23 *1860:B 3.355 
5 *233:23 *1859:A2 1.96 
*END

*D_NET *234 0.00439364
*CONN
*I *1759:C I *D sky130_fd_sc_hd__nor3_2
*I *1758:B1 I *D sky130_fd_sc_hd__o21a_2
*I *1757:Y O *D sky130_fd_sc_hd__nor2_2
*CAP
1 *1759:C 0.000185947
2 *1758:B1 1.86427e-05
3 *1757:Y 0.00106348
4 *234:30 0.00126807
5 *1759:C *235:10 0.000271482
6 *234:30 *1648:A1 9.02259e-05
7 *234:30 *1729:A 0.000271248
8 *234:30 *1729:B 0.000153344
9 *234:30 *235:14 0
10 *234:30 *448:34 1.4174e-05
11 *1646:C *234:30 0.000119756
12 *1650:A *234:30 0
13 *1650:C_N *234:30 7.75359e-05
14 *1651:A1 *234:30 0
15 *1734:B *234:30 3.67779e-05
16 *1736:A *234:30 8.70781e-05
17 *1736:B *234:30 0
18 *1754:A1 *234:30 2.67184e-05
19 *1759:A *1758:B1 4.82919e-05
20 *1759:A *1759:C 2.14358e-05
21 *2086:A *234:30 6.10014e-05
22 *124:10 *234:30 8.65961e-05
23 *124:34 *234:30 0.000299107
24 *126:10 *234:30 0
25 *129:12 *234:30 4.99619e-05
26 *208:10 *234:30 0.000142759
27 *212:10 *234:30 0
*RES
1 *1757:Y *234:30 26.42 
2 *234:30 *1758:B1 2.05 
3 *234:30 *1759:C 5.185 
*END

*D_NET *235 0.00366177
*CONN
*I *1760:A I *D sky130_fd_sc_hd__nor2_2
*I *1862:A I *D sky130_fd_sc_hd__xnor2_2
*I *1875:A1 I *D sky130_fd_sc_hd__o21a_4
*I *1873:A1 I *D sky130_fd_sc_hd__a21o_2
*I *1758:X O *D sky130_fd_sc_hd__o21a_2
*CAP
1 *1760:A 5.54709e-05
2 *1862:A 0.000252271
3 *1875:A1 0
4 *1873:A1 0.000155987
5 *1758:X 0.00013982
6 *235:25 0.000288375
7 *235:14 0.000788099
8 *235:10 0.000791299
9 *1760:A *1760:B 0.000163204
10 *1862:A *1862:B 6.63221e-05
11 *1862:A *1874:B1 9.24881e-05
12 *1862:A *337:16 3.0816e-05
13 *1862:A *337:34 8.53011e-05
14 *1873:A1 *1873:A2 0.000233604
15 *235:10 *1759:B 7.60983e-05
16 *235:10 *1760:B 4.82863e-05
17 *235:14 *237:10 0
18 *235:14 *238:10 0
19 *235:25 *337:16 5.31158e-06
20 *1736:B *235:14 0
21 *1759:A *235:10 8.65961e-05
22 *1759:C *235:10 0.000271482
23 *1874:A1 *1862:A 3.0933e-05
24 *212:10 *235:14 0
25 *234:30 *235:14 0
*RES
1 *1758:X *235:10 5.62 
2 *235:10 *235:14 11.54 
3 *235:14 *1873:A1 5.775 
4 *235:14 *235:25 0.615 
5 *235:25 *1875:A1 3.6 
6 *235:25 *1862:A 8.625 
7 *235:10 *1760:A 3.085 
*END

*D_NET *236 0.000545487
*CONN
*I *1760:B I *D sky130_fd_sc_hd__nor2_2
*I *1759:Y O *D sky130_fd_sc_hd__nor3_2
*CAP
1 *1760:B 0.000166998
2 *1759:Y 0.000166998
3 *1760:A *1760:B 0.000163204
4 *235:10 *1760:B 4.82863e-05
*RES
1 *1759:Y *1760:B 6.08 
*END

*D_NET *237 0.000969277
*CONN
*I *1762:C I *D sky130_fd_sc_hd__nor3_2
*I *1761:B1 I *D sky130_fd_sc_hd__o21a_2
*I *1760:Y O *D sky130_fd_sc_hd__nor2_2
*CAP
1 *1762:C 0.000134037
2 *1761:B1 0
3 *1760:Y 0.00021589
4 *237:10 0.000349927
5 *1762:C *1763:B 0
6 *237:10 *1763:B 0
7 *1740:B *1762:C 8.65961e-05
8 *1761:A2 *1762:C 7.71016e-05
9 *1762:A *1762:C 6.5265e-05
10 *1762:A *237:10 1.22762e-05
11 *216:8 *1762:C 2.8185e-05
12 *235:14 *237:10 0
*RES
1 *1760:Y *237:10 6.375 
2 *237:10 *1761:B1 3.6 
3 *237:10 *1762:C 6.975 
*END

*D_NET *238 0.00214896
*CONN
*I *1763:A I *D sky130_fd_sc_hd__nor2_2
*I *1873:B1 I *D sky130_fd_sc_hd__a21o_2
*I *1863:B1 I *D sky130_fd_sc_hd__a21oi_2
*I *1761:X O *D sky130_fd_sc_hd__o21a_2
*CAP
1 *1763:A 0.000136203
2 *1873:B1 0.000126772
3 *1863:B1 5.45984e-05
4 *1761:X 0
5 *238:10 0.000683992
6 *238:4 0.000638825
7 *1739:A *238:10 0.000162325
8 *1761:A2 *1763:A 7.00889e-06
9 *1761:A2 *238:10 6.05513e-05
10 *1762:A *238:10 8.26527e-05
11 *129:23 *1863:B1 7.11365e-05
12 *213:6 *238:10 0.0001249
13 *235:14 *238:10 0
*RES
1 *1761:X *238:4 1.6 
2 *238:4 *238:10 11.6 
3 *238:10 *1863:B1 4.74 
4 *238:10 *1873:B1 5.49 
5 *238:4 *1763:A 3.79 
*END

*D_NET *239 0.000728077
*CONN
*I *1763:B I *D sky130_fd_sc_hd__nor2_2
*I *1762:Y O *D sky130_fd_sc_hd__nor3_2
*CAP
1 *1763:B 0.000146445
2 *1762:Y 0.000146445
3 *1763:B *240:8 0.000185398
4 *1740:B *1763:B 0.000124895
5 *1761:A2 *1763:B 0
6 *1762:C *1763:B 0
7 *216:8 *1763:B 0.000124895
8 *217:10 *1763:B 0
9 *237:10 *1763:B 0
*RES
1 *1762:Y *1763:B 10.995 
*END

*D_NET *240 0.00250721
*CONN
*I *1764:B I *D sky130_fd_sc_hd__xor2_2
*I *1863:A2 I *D sky130_fd_sc_hd__a21oi_2
*I *1763:Y O *D sky130_fd_sc_hd__nor2_2
*CAP
1 *1764:B 0.000326479
2 *1863:A2 0.000115133
3 *1763:Y 0.000289278
4 *240:8 0.00073089
5 *1764:B *1866:B 0
6 *1740:A *240:8 0
7 *1741:A *240:8 0.000157312
8 *1741:B *240:8 0
9 *1742:B *1764:B 8.33066e-06
10 *1742:B *240:8 4.22675e-05
11 *1751:B1 *1764:B 8.44567e-05
12 *1763:B *240:8 0.000185398
13 *1764:A *1764:B 0.000191781
14 *129:23 *1863:A2 0.00015956
15 *217:10 *240:8 0
16 *221:8 *1764:B 0.000216327
*RES
1 *1763:Y *240:8 9.57 
2 *240:8 *1863:A2 6.12 
3 *240:8 *1764:B 10.265 
*END

*D_NET *241 0.00574272
*CONN
*I *1819:A1 I *D sky130_fd_sc_hd__a21o_2
*I *1813:A I *D sky130_fd_sc_hd__xnor2_2
*I *1764:X O *D sky130_fd_sc_hd__xor2_2
*CAP
1 *1819:A1 0.000227485
2 *1813:A 0.000121899
3 *1764:X 0.000890917
4 *241:8 0.0012403
5 *1813:A *1818:B 1.47347e-05
6 *1813:A *2087:A 8.49205e-05
7 *1819:A1 *1813:B 0.000132096
8 *1819:A1 *1815:B 0
9 *1819:A1 *1819:A2 0.000185411
10 *1819:A1 *1866:B 0
11 *1819:A1 *1869:B1 0
12 *1819:A1 *1906:A1 4.66742e-05
13 *1819:A1 *1906:A2 0
14 *1819:A1 *2091:A 0
15 *1819:A1 *295:12 2.97004e-06
16 *1819:A1 *381:8 0
17 *241:8 *1813:B 5.16418e-05
18 *241:8 *2087:A 0.0001471
19 *241:8 *345:8 0
20 y[4] *241:8 5.66208e-05
21 *1670:B1 *241:8 0
22 *1728:B1 *241:8 0
23 *1744:B *241:8 0.00043969
24 *1747:A2 *241:8 0.000183043
25 *1814:A_N *241:8 9.05377e-05
26 *1814:B *241:8 6.18754e-05
27 *122:39 *241:8 0
28 *138:8 *241:8 5.57736e-05
29 *149:12 *241:8 7.00066e-05
30 *153:14 *241:8 0
31 *159:10 *241:8 0.000136877
32 *205:26 *241:8 1.1561e-05
33 *221:8 *241:8 0.00115139
34 *222:8 *241:8 0.000339198
*RES
1 *1764:X *241:8 28.44 
2 *241:8 *1813:A 5.355 
3 *241:8 *1819:A1 8.325 
*END

*D_NET *242 0.00161372
*CONN
*I *1796:A I *D sky130_fd_sc_hd__xnor2_2
*I *1820:A1 I *D sky130_fd_sc_hd__a21o_2
*I *1765:X O *D sky130_fd_sc_hd__a21bo_2
*CAP
1 *1796:A 0.000100207
2 *1820:A1 5.58675e-05
3 *1765:X 0.00037941
4 *242:10 0.000535484
5 *1796:A *1820:A2 3.74161e-05
6 *1820:A1 *1820:A2 4.66108e-05
7 *242:10 *1795:A 0.000208477
8 *242:10 *1795:B 0.000130057
9 *1707:B *242:10 0
10 *1821:A2 *242:10 0
11 *183:15 *242:10 0
12 *185:8 *242:10 0.000120186
*RES
1 *1765:X *242:10 13.865 
2 *242:10 *1820:A1 2.395 
3 *242:10 *1796:A 3.1 
*END

*D_NET *243 0.00382572
*CONN
*I *1888:A1 I *D sky130_fd_sc_hd__a211o_4
*I *1831:A1 I *D sky130_fd_sc_hd__a21o_2
*I *1779:A I *D sky130_fd_sc_hd__xnor2_2
*I *1766:X O *D sky130_fd_sc_hd__a21bo_4
*CAP
1 *1888:A1 0.000350395
2 *1831:A1 7.82598e-05
3 *1779:A 0
4 *1766:X 0.000513818
5 *243:23 0.000579268
6 *243:14 0.000664431
7 *1831:A1 *1831:B1 1.56428e-05
8 *1888:A1 *1831:A2 2.23922e-05
9 *1888:A1 *1888:C1 0.00047017
10 *1888:A1 *254:12 2.05583e-05
11 *243:14 *1777:B 1.34361e-05
12 *243:14 *253:10 0.000307169
13 *243:14 *255:8 0.000143266
14 *243:14 *444:52 0
15 *243:14 *444:67 0
16 *243:23 *1831:A2 0.000298435
17 *243:23 *255:8 2.30797e-05
18 *1693:A1 *243:14 0.00011852
19 *1693:B1 *243:14 0.00013994
20 *1694:B *243:14 4.77757e-05
21 *1776:B *243:14 0
22 *168:21 *243:14 0
23 *170:14 *243:14 1.91597e-05
24 *171:10 *243:14 0
*RES
1 *1766:X *243:14 14.745 
2 *243:14 *1779:A 3.6 
3 *243:14 *243:23 3.675 
4 *243:23 *1831:A1 4.395 
5 *243:23 *1888:A1 11.04 
*END

*D_NET *244 0.00260325
*CONN
*I *1775:A I *D sky130_fd_sc_hd__xnor2_2
*I *1774:A I *D sky130_fd_sc_hd__and2_2
*I *1767:Y O *D sky130_fd_sc_hd__nand2_2
*CAP
1 *1775:A 0.00012304
2 *1774:A 2.60155e-05
3 *1767:Y 0.000418141
4 *244:10 0.000567196
5 *1774:A *247:10 2.49909e-05
6 *1775:A *1773:A 0.000200648
7 *1775:A *1774:B 0.000103974
8 *1775:A *250:6 8.49205e-05
9 *244:10 *1771:B1 0.000231564
10 *244:10 *1772:A 7.21296e-06
11 *244:10 *1773:A 0.000316105
12 *244:10 *1774:B 4.43871e-06
13 *244:10 *1778:A 0
14 *244:10 *247:10 6.28498e-05
15 *244:10 *439:81 0.000190065
16 *1767:A *244:10 8.40213e-05
17 *1770:A1 *244:10 0
18 *1776:A *244:10 0
19 *1776:B *244:10 0
20 *2093:A *244:10 0.000158066
*RES
1 *1767:Y *244:10 14.13 
2 *244:10 *1774:A 4.05 
3 *244:10 *1775:A 7.14 
*END

*D_NET *245 0.00165743
*CONN
*I *1835:A I *D sky130_fd_sc_hd__nor2_2
*I *1770:B1 I *D sky130_fd_sc_hd__a21oi_2
*I *1768:X O *D sky130_fd_sc_hd__and4_2
*CAP
1 *1835:A 7.181e-05
2 *1770:B1 0.000123067
3 *1768:X 6.48158e-05
4 *245:8 0.000259693
5 *1770:B1 *1770:A2 1.16578e-05
6 *1770:B1 *485:8 4.66108e-05
7 *1835:A *1833:A 2.49909e-05
8 *1835:A *1835:B 4.66108e-05
9 *1835:A *440:86 0.000152821
10 *1835:A *440:99 5.23362e-05
11 *1835:A *485:10 2.92496e-05
12 *1835:A *485:69 0.000175214
13 *245:8 *440:86 0.000300109
14 *245:8 *485:10 0.000298442
*RES
1 *1768:X *245:8 7.02 
2 *245:8 *1770:B1 5.43 
3 *245:8 *1835:A 6.45 
*END

*D_NET *246 0.00159031
*CONN
*I *1885:C I *D sky130_fd_sc_hd__and3_2
*I *1770:A2 I *D sky130_fd_sc_hd__a21oi_2
*I *1769:Y O *D sky130_fd_sc_hd__nand2_2
*CAP
1 *1885:C 7.8064e-05
2 *1770:A2 0.000214663
3 *1769:Y 5.41947e-05
4 *246:8 0.000346922
5 *1770:A2 *1769:B 3.0631e-05
6 *1770:A2 *309:12 0.000136877
7 *1770:A2 *441:61 6.43964e-05
8 *1770:A2 *485:80 7.5775e-05
9 *1770:A2 *495:18 1.79098e-05
10 *1770:A2 *495:20 9.24049e-05
11 *1885:C *1769:B 0.000127366
12 *1885:C *1834:A 2.59981e-05
13 *1885:C *1837:B 1.71013e-05
14 *1885:C *308:8 1.1561e-05
15 *1885:C *309:12 0.000114492
16 *1885:C *309:18 1.86688e-05
17 *246:8 *1769:A 9.2741e-05
18 *246:8 *1832:A2 1.47347e-05
19 *246:8 *495:18 4.41506e-05
20 *1770:B1 *1770:A2 1.16578e-05
*RES
1 *1769:Y *246:8 5.085 
2 *246:8 *1770:A2 8.8575 
3 *246:8 *1885:C 6 
*END

*D_NET *247 0.0011085
*CONN
*I *1772:C I *D sky130_fd_sc_hd__and3_2
*I *1771:B1 I *D sky130_fd_sc_hd__a21oi_2
*I *1770:Y O *D sky130_fd_sc_hd__a21oi_2
*CAP
1 *1772:C 0
2 *1771:B1 8.97294e-05
3 *1770:Y 0.00022236
4 *247:10 0.000312089
5 *1771:B1 *1772:A 0.00016492
6 *1771:B1 *1778:A 0
7 *247:10 *1778:A 0
8 *1774:A *247:10 2.49909e-05
9 *244:10 *1771:B1 0.000231564
10 *244:10 *247:10 6.28498e-05
*RES
1 *1770:Y *247:10 6.3 
2 *247:10 *1771:B1 6.705 
3 *247:10 *1772:C 3.6 
*END

*D_NET *248 0.00107444
*CONN
*I *1773:A I *D sky130_fd_sc_hd__nor2_2
*I *1771:Y O *D sky130_fd_sc_hd__a21oi_2
*CAP
1 *1773:A 0.0001496
2 *1771:Y 0.0001496
3 *1773:A *249:12 0.000175848
4 *1770:A1 *1773:A 8.2644e-05
5 *1775:A *1773:A 0.000200648
6 *244:10 *1773:A 0.000316105
*RES
1 *1771:Y *1773:A 13.17 
*END

*D_NET *249 0.0017569
*CONN
*I *1835:B I *D sky130_fd_sc_hd__nor2_2
*I *1773:B I *D sky130_fd_sc_hd__nor2_2
*I *1772:X O *D sky130_fd_sc_hd__and3_2
*CAP
1 *1835:B 0.000322259
2 *1773:B 0
3 *1772:X 0.000182716
4 *249:12 0.000504975
5 *1835:B *1833:C 4.66108e-05
6 *1835:B *1833:D 0.000122331
7 *1835:B *250:6 5.05437e-05
8 *1835:B *485:69 4.66108e-05
9 *1835:B *485:80 4.66108e-05
10 *249:12 *1772:B 1.04217e-05
11 *249:12 *495:18 2.97004e-06
12 *249:12 *495:20 8.05681e-05
13 *1770:A1 *249:12 0.000117825
14 *1773:A *249:12 0.000175848
15 *1835:A *1835:B 4.66108e-05
*RES
1 *1772:X *249:12 10.07 
2 *249:12 *1773:B 1.6 
3 *249:12 *1835:B 6.91 
*END

*D_NET *250 0.000807547
*CONN
*I *1775:B I *D sky130_fd_sc_hd__xnor2_2
*I *1774:B I *D sky130_fd_sc_hd__and2_2
*I *1773:Y O *D sky130_fd_sc_hd__nor2_2
*CAP
1 *1775:B 0
2 *1774:B 0.000130407
3 *1773:Y 0.000151428
4 *250:6 0.000281835
5 *1774:B *251:10 0
6 *1774:B *252:8 0
7 *1775:A *1774:B 0.000103974
8 *1775:A *250:6 8.49205e-05
9 *1835:B *250:6 5.05437e-05
10 *244:10 *1774:B 4.43871e-06
*RES
1 *1773:Y *250:6 4.12 
2 *250:6 *1774:B 8.195 
3 *250:6 *1775:B 1.6 
*END

*D_NET *251 0.00184894
*CONN
*I *1838:A I *D sky130_fd_sc_hd__and2_2
*I *1889:A1 I *D sky130_fd_sc_hd__o21a_4
*I *1839:A I *D sky130_fd_sc_hd__xor2_2
*I *1774:X O *D sky130_fd_sc_hd__and2_2
*CAP
1 *1838:A 0.000206267
2 *1889:A1 0
3 *1839:A 0
4 *1774:X 0.000393179
5 *251:19 0.000305572
6 *251:10 0.000492483
7 *1838:A *1838:B 0.000171821
8 *1838:A *1840:B 0
9 *1838:A *1887:A 0
10 *1838:A *1888:B1 0
11 *1838:A *1889:B1 6.55406e-05
12 *1838:A *1913:B 3.45679e-05
13 *1838:A *313:21 9.50036e-05
14 *251:10 *1769:B 0
15 *251:10 *252:8 0
16 *251:19 *1839:B 7.89767e-05
17 *251:19 *1840:B 0
18 *251:19 *313:21 5.53249e-06
19 *1774:B *251:10 0
*RES
1 *1774:X *251:10 9.765 
2 *251:10 *1839:A 3.6 
3 *251:10 *251:19 1.89 
4 *251:19 *1889:A1 3.6 
5 *251:19 *1838:A 8.58 
*END

*D_NET *252 0.0005438
*CONN
*I *1777:A I *D sky130_fd_sc_hd__nor2_2
*I *1778:A I *D sky130_fd_sc_hd__xor2_2
*I *1775:Y O *D sky130_fd_sc_hd__xnor2_2
*CAP
1 *1777:A 0
2 *1778:A 0.00014307
3 *1775:Y 0.000128831
4 *252:8 0.0002719
5 *1778:A *1772:A 0
6 *1778:A *1777:B 0
7 *1778:A *253:10 0
8 *1771:B1 *1778:A 0
9 *1774:B *252:8 0
10 *244:10 *1778:A 0
11 *247:10 *1778:A 0
12 *251:10 *252:8 0
*RES
1 *1775:Y *252:8 5.745 
2 *252:8 *1778:A 5.94 
3 *252:8 *1777:A 3.6 
*END

*D_NET *253 0.00152781
*CONN
*I *1777:B I *D sky130_fd_sc_hd__nor2_2
*I *1778:B I *D sky130_fd_sc_hd__xor2_2
*I *1776:X O *D sky130_fd_sc_hd__and2_2
*CAP
1 *1777:B 0.000129514
2 *1778:B 0
3 *1776:X 0.000367864
4 *253:10 0.000497378
5 *1777:B *254:12 7.08493e-05
6 *1777:B *255:8 0.000141599
7 *1778:A *1777:B 0
8 *1778:A *253:10 0
9 *243:14 *1777:B 1.34361e-05
10 *243:14 *253:10 0.000307169
*RES
1 *1776:X *253:10 9.105 
2 *253:10 *1778:B 2 
3 *253:10 *1777:B 6.63 
*END

*D_NET *254 0.00259799
*CONN
*I *1888:C1 I *D sky130_fd_sc_hd__a211o_4
*I *1831:B1 I *D sky130_fd_sc_hd__a21o_2
*I *1777:Y O *D sky130_fd_sc_hd__nor2_2
*CAP
1 *1888:C1 0.000238971
2 *1831:B1 8.74403e-05
3 *1777:Y 0.000265464
4 *254:12 0.000591876
5 *1831:B1 *1840:A 4.88478e-05
6 *1888:C1 *1840:A 0.000298442
7 *1888:C1 *1888:A2 7.08493e-05
8 *1888:C1 *1889:B1 0
9 *1888:C1 *506:10 0.000122797
10 *254:12 *1831:A2 0.000296088
11 *1777:B *254:12 7.08493e-05
12 *1831:A1 *1831:B1 1.56428e-05
13 *1888:A1 *1888:C1 0.00047017
14 *1888:A1 *254:12 2.05583e-05
*RES
1 *1777:Y *254:12 9.12 
2 *254:12 *1831:B1 5.205 
3 *254:12 *1888:C1 11.52 
*END

*D_NET *255 0.00115767
*CONN
*I *1831:A2 I *D sky130_fd_sc_hd__a21o_2
*I *1779:B I *D sky130_fd_sc_hd__xnor2_2
*I *1778:X O *D sky130_fd_sc_hd__xor2_2
*CAP
1 *1831:A2 7.52383e-05
2 *1779:B 0
3 *1778:X 4.11688e-05
4 *255:8 0.000116407
5 *1777:B *255:8 0.000141599
6 *1888:A1 *1831:A2 2.23922e-05
7 *243:14 *255:8 0.000143266
8 *243:23 *1831:A2 0.000298435
9 *243:23 *255:8 2.30797e-05
10 *254:12 *1831:A2 0.000296088
*RES
1 *1778:X *255:8 5.49 
2 *255:8 *1779:B 3.6 
3 *255:8 *1831:A2 7.275 
*END

*D_NET *256 0.00433316
*CONN
*I *1794:A I *D sky130_fd_sc_hd__nor2_2
*I *1795:A I *D sky130_fd_sc_hd__xor2_2
*I *1779:Y O *D sky130_fd_sc_hd__xnor2_2
*CAP
1 *1794:A 9.26168e-05
2 *1795:A 0.000160926
3 *1779:Y 0.00135581
4 *256:14 0.00160935
5 *1794:A *1794:B 3.29384e-05
6 *1794:A *1820:B1 4.07182e-05
7 *1795:A *1793:B 0
8 *1795:A *1795:B 4.11198e-05
9 *1795:A *1820:B1 9.29751e-06
10 *1795:A *296:14 8.78813e-05
11 *256:14 *1700:A2 2.32193e-05
12 *256:14 *1820:B1 4.38278e-05
13 *256:14 *297:10 8.40269e-05
14 *1700:B1 *256:14 2.0514e-05
15 *1700:B2 *256:14 0.000108687
16 *1702:B *256:14 1.34503e-05
17 *1703:B1 *256:14 3.45679e-05
18 *1821:A2 *256:14 0.00014046
19 *178:8 *256:14 0.000198051
20 *181:12 *256:14 2.72274e-05
21 *242:10 *1795:A 0.000208477
*RES
1 *1779:Y *256:14 20.05 
2 *256:14 *1795:A 9.785 
3 *256:14 *1794:A 3.445 
*END

*D_NET *257 0.00265096
*CONN
*I *1786:A I *D sky130_fd_sc_hd__nand2_2
*I *1787:A I *D sky130_fd_sc_hd__xnor2_2
*I *1780:Y O *D sky130_fd_sc_hd__nand2_2
*CAP
1 *1786:A 0.000102272
2 *1787:A 0
3 *1780:Y 0.000766895
4 *257:10 0.000869167
5 *1786:A *1786:B 0.000154481
6 *1786:A *1842:B 2.75229e-05
7 *1786:A *2094:A 0
8 *1786:A *297:10 0
9 *257:10 *1696:B 0
10 *257:10 *1786:B 3.25831e-05
11 *257:10 *1789:A 0
12 *257:10 *262:8 0.000166346
13 *257:10 *264:8 0
14 *257:10 *297:10 0
15 *257:10 *443:112 5.67938e-05
16 *257:10 *443:126 0.000106686
17 *1701:C *257:10 3.23663e-05
18 *1702:B *257:10 0.000122331
19 *1702:C *257:10 2.50702e-05
20 *1703:B1 *257:10 5.21627e-05
21 *1780:B *257:10 0.000124007
22 *1788:A1 *257:10 1.22762e-05
23 *1821:A1 *257:10 0
24 *181:12 *257:10 0
*RES
1 *1780:Y *257:10 18 
2 *257:10 *1787:A 3.6 
3 *257:10 *1786:A 5.94 
*END

*D_NET *258 0.000821847
*CONN
*I *1783:B1 I *D sky130_fd_sc_hd__a21o_2
*I *1826:B1_N I *D sky130_fd_sc_hd__o21bai_2
*I *1781:X O *D sky130_fd_sc_hd__and4_2
*CAP
1 *1783:B1 9.19696e-05
2 *1826:B1_N 2.32169e-05
3 *1781:X 9.74142e-05
4 *258:10 0.000212601
5 *1783:B1 *1781:C 0.000203002
6 *1783:B1 *445:73 0
7 *1826:B1_N *1842:B 2.75229e-05
8 *258:10 *1697:A 4.99619e-05
9 *258:10 *1781:C 0.000116158
10 *258:10 *1826:A2 0
*RES
1 *1781:X *258:10 5.43 
2 *258:10 *1826:B1_N 4.05 
3 *258:10 *1783:B1 6 
*END

*D_NET *259 0.00192572
*CONN
*I *1911:A1 I *D sky130_fd_sc_hd__a21o_2
*I *1879:C I *D sky130_fd_sc_hd__and3_2
*I *1783:A2 I *D sky130_fd_sc_hd__a21o_2
*I *1825:A1 I *D sky130_fd_sc_hd__o21a_2
*I *1782:Y O *D sky130_fd_sc_hd__nand2_2
*CAP
1 *1911:A1 0.000120117
2 *1879:C 0
3 *1783:A2 6.04804e-05
4 *1825:A1 0
5 *1782:Y 2.6786e-05
6 *259:34 0.000405785
7 *259:6 0.000372934
8 *1783:A2 *1781:C 1.70935e-05
9 *1783:A2 *1823:A1 5.16348e-05
10 *1783:A2 *444:76 3.94692e-05
11 *1783:A2 *506:10 8.53113e-06
12 *1783:A2 *512:33 4.5783e-05
13 *1911:A1 *1824:B 0
14 *1911:A1 *1880:B 7.23533e-05
15 *1911:A1 *1911:A2 8.65905e-05
16 *1911:A1 *1912:B 1.61831e-05
17 *259:6 *1782:B 1.08758e-05
18 *259:6 *512:33 4.66108e-05
19 *259:34 *1825:B1 4.99619e-05
20 *259:34 *1827:A 1.16578e-05
21 *259:34 *1880:B 9.50342e-06
22 *259:34 *301:8 0.000111285
23 *259:34 *445:73 0.000183036
24 *259:34 *512:33 7.40446e-05
25 *259:34 *514:10 5.29131e-05
26 *259:34 *514:14 5.2089e-05
*RES
1 *1782:Y *259:6 2.05 
2 *259:6 *1825:A1 1.6 
3 *259:6 *1783:A2 7.235 
4 *259:6 *259:34 8.78 
5 *259:34 *1879:C 3.6 
6 *259:34 *1911:A1 5.61 
*END

*D_NET *260 0.00142257
*CONN
*I *1826:A1 I *D sky130_fd_sc_hd__o21bai_2
*I *1785:A I *D sky130_fd_sc_hd__xor2_2
*I *1783:X O *D sky130_fd_sc_hd__a21o_2
*CAP
1 *1826:A1 0
2 *1785:A 0.00011579
3 *1783:X 0.000250387
4 *260:10 0.000366177
5 *1785:A *1826:A2 6.36273e-05
6 *1785:A *445:73 8.71001e-05
7 *1785:A *512:68 1.26548e-05
8 *1785:A *514:14 0.000316813
9 *260:10 *445:73 7.07801e-05
10 *260:10 *514:14 0.000139238
*RES
1 *1783:X *260:10 7.41 
2 *260:10 *1785:A 7.53 
3 *260:10 *1826:A1 3.6 
*END

*D_NET *261 0.000893914
*CONN
*I *1785:B I *D sky130_fd_sc_hd__xor2_2
*I *1826:A2 I *D sky130_fd_sc_hd__o21bai_2
*I *1784:Y O *D sky130_fd_sc_hd__nand2_2
*CAP
1 *1785:B 4.60856e-05
2 *1826:A2 0.000202444
3 *1784:Y 1.91908e-05
4 *261:6 0.00026772
5 *1785:B *1784:B 8.65961e-05
6 *1826:A2 *445:51 0
7 *1826:A2 *445:73 0.000159964
8 *261:6 *1784:B 4.82863e-05
9 *1783:A1 *1826:A2 0
10 *1785:A *1826:A2 6.36273e-05
11 *258:10 *1826:A2 0
*RES
1 *1784:Y *261:6 2.05 
2 *261:6 *1826:A2 9.53 
3 *261:6 *1785:B 1.1475 
*END

*D_NET *262 0.000677708
*CONN
*I *1786:B I *D sky130_fd_sc_hd__nand2_2
*I *1787:B I *D sky130_fd_sc_hd__xnor2_2
*I *1785:X O *D sky130_fd_sc_hd__xor2_2
*CAP
1 *1786:B 8.46301e-05
2 *1787:B 0
3 *1785:X 7.7519e-05
4 *262:8 0.000162149
5 *1786:B *514:14 0
6 *262:8 *1696:B 0
7 *262:8 *512:68 0
8 *1786:A *1786:B 0.000154481
9 *257:10 *1786:B 3.25831e-05
10 *257:10 *262:8 0.000166346
*RES
1 *1785:X *262:8 5.49 
2 *262:8 *1787:B 3.6 
3 *262:8 *1786:B 5.745 
*END

*D_NET *263 0.000696408
*CONN
*I *1881:A1 I *D sky130_fd_sc_hd__a21oi_2
*I *1829:A I *D sky130_fd_sc_hd__xnor2_2
*I *1786:Y O *D sky130_fd_sc_hd__nand2_2
*CAP
1 *1881:A1 0
2 *1829:A 0.00011783
3 *1786:Y 9.62986e-05
4 *263:8 0.000214129
5 *1829:A *1830:B 0
6 *1829:A *1881:B1 1.44259e-05
7 *1829:A *356:10 9.24127e-05
8 *263:8 *1842:B 6.47326e-05
9 *263:8 *1881:B1 4.82863e-05
10 *263:8 *2094:A 0
11 *263:8 *356:10 4.82919e-05
*RES
1 *1786:Y *263:8 3.79 
2 *263:8 *1829:A 8 
3 *263:8 *1881:A1 1.6 
*END

*D_NET *264 0.000598968
*CONN
*I *1790:A I *D sky130_fd_sc_hd__and2_2
*I *1789:A I *D sky130_fd_sc_hd__nor2_2
*I *1787:Y O *D sky130_fd_sc_hd__xnor2_2
*CAP
1 *1790:A 0
2 *1789:A 0.000122736
3 *1787:Y 7.66836e-05
4 *264:8 0.000199419
5 *1789:A *297:10 0.000105849
6 *264:8 *297:10 9.428e-05
7 *257:10 *1789:A 0
8 *257:10 *264:8 0
*RES
1 *1787:Y *264:8 5.49 
2 *264:8 *1789:A 6.195 
3 *264:8 *1790:A 3.6 
*END

*D_NET *265 0.00129176
*CONN
*I *1790:B I *D sky130_fd_sc_hd__and2_2
*I *1789:B I *D sky130_fd_sc_hd__nor2_2
*I *1788:X O *D sky130_fd_sc_hd__o21ba_2
*CAP
1 *1790:B 0.000111826
2 *1789:B 0
3 *1788:X 0.000221134
4 *265:10 0.00033296
5 *1790:B *1791:B 0
6 *1790:B *1821:B1 5.53249e-06
7 *1790:B *297:10 0.000155176
8 *265:10 *1793:A 0
9 *265:10 *1821:B1 0.000102403
10 *265:10 *297:10 0.000162318
11 *1704:A *265:10 8.65961e-05
12 *1821:A1 *265:10 6.55328e-05
13 *1821:A2 *265:10 0
14 *180:8 *265:10 4.82863e-05
*RES
1 *1788:X *265:10 8.415 
2 *265:10 *1789:B 3.6 
3 *265:10 *1790:B 5.94 
*END

*D_NET *266 0.000466498
*CONN
*I *1791:A I *D sky130_fd_sc_hd__nor2_2
*I *1821:B1 I *D sky130_fd_sc_hd__a21oi_2
*I *1789:Y O *D sky130_fd_sc_hd__nor2_2
*CAP
1 *1791:A 7.95201e-05
2 *1821:B1 9.97611e-05
3 *1789:Y 0
4 *266:4 0.000179281
5 *1821:B1 *1793:A 0
6 *1790:B *1821:B1 5.53249e-06
7 *265:10 *1821:B1 0.000102403
*RES
1 *1789:Y *266:4 1.6 
2 *266:4 *1821:B1 7.745 
3 *266:4 *1791:A 2.74 
*END

*D_NET *267 0.000806416
*CONN
*I *1822:A I *D sky130_fd_sc_hd__or2_2
*I *1791:B I *D sky130_fd_sc_hd__nor2_2
*I *1790:X O *D sky130_fd_sc_hd__and2_2
*CAP
1 *1822:A 7.1209e-05
2 *1791:B 0.000288811
3 *1790:X 0.00036002
4 *1791:B *296:14 0
5 *1822:A *1830:B 0
6 *1822:A *2094:A 5.53249e-06
7 *1822:A *297:10 8.08439e-05
8 *1790:B *1791:B 0
*RES
1 *1790:X *1791:B 10.755 
2 *1790:X *1822:A 8.835 
*END

*D_NET *268 0.000319157
*CONN
*I *1793:A I *D sky130_fd_sc_hd__xor2_2
*I *1791:Y O *D sky130_fd_sc_hd__nor2_2
*CAP
1 *1793:A 0.00015322
2 *1791:Y 0.00015322
3 *1793:A *1793:B 4.18603e-06
4 *1793:A *296:14 0
5 *1821:A2 *1793:A 8.53113e-06
6 *1821:B1 *1793:A 0
7 *265:10 *1793:A 0
*RES
1 *1791:Y *1793:A 9.54 
*END

*D_NET *269 0.000609323
*CONN
*I *1793:B I *D sky130_fd_sc_hd__xor2_2
*I *1792:Y O *D sky130_fd_sc_hd__nand2_2
*CAP
1 *1793:B 0.000260023
2 *1792:Y 0.000260023
3 *1793:B *1820:B1 6.47594e-05
4 *1793:B *296:14 2.03321e-05
5 *1793:A *1793:B 4.18603e-06
6 *1795:A *1793:B 0
7 *1821:A2 *1793:B 0
*RES
1 *1792:Y *1793:B 10.325 
*END

*D_NET *270 0.000818421
*CONN
*I *1794:B I *D sky130_fd_sc_hd__nor2_2
*I *1795:B I *D sky130_fd_sc_hd__xor2_2
*I *1793:X O *D sky130_fd_sc_hd__xor2_2
*CAP
1 *1794:B 6.78899e-05
2 *1795:B 0.000195965
3 *1793:X 0
4 *270:4 0.000263855
5 *1794:B *1820:B1 8.65961e-05
6 *1795:B *1796:B 0
7 *1794:A *1794:B 3.29384e-05
8 *1795:A *1795:B 4.11198e-05
9 *242:10 *1795:B 0.000130057
*RES
1 *1793:X *270:4 1.6 
2 *270:4 *1795:B 7.93 
3 *270:4 *1794:B 3.1 
*END

*D_NET *271 0.000876754
*CONN
*I *1820:B1 I *D sky130_fd_sc_hd__a21o_2
*I *1794:Y O *D sky130_fd_sc_hd__nor2_2
*CAP
1 *1820:B1 0.000268891
2 *1794:Y 0.000268891
3 *1820:B1 *296:14 9.37731e-05
4 *1793:B *1820:B1 6.47594e-05
5 *1794:A *1820:B1 4.07182e-05
6 *1794:B *1820:B1 8.65961e-05
7 *1795:A *1820:B1 9.29751e-06
8 *256:14 *1820:B1 4.38278e-05
*RES
1 *1794:Y *1820:B1 11.445 
*END

*D_NET *272 0.00046227
*CONN
*I *1820:A2 I *D sky130_fd_sc_hd__a21o_2
*I *1796:B I *D sky130_fd_sc_hd__xnor2_2
*I *1795:X O *D sky130_fd_sc_hd__xor2_2
*CAP
1 *1820:A2 4.0513e-05
2 *1796:B 0.000189122
3 *1795:X 0.000148609
4 *1795:B *1796:B 0
5 *1796:A *1820:A2 3.74161e-05
6 *1820:A1 *1820:A2 4.66108e-05
*RES
1 *1795:X *1796:B 9.54 
2 *1796:B *1820:A2 3.995 
*END

*D_NET *273 0.00560039
*CONN
*I *1812:A I *D sky130_fd_sc_hd__xor2_2
*I *1811:A I *D sky130_fd_sc_hd__nor2_2
*I *1796:Y O *D sky130_fd_sc_hd__xnor2_2
*CAP
1 *1812:A 0.000679026
2 *1811:A 0.000313566
3 *1796:Y 0.00140237
4 *273:12 0.00239496
5 *1811:A *281:10 3.86607e-05
6 *1811:A *352:13 4.49498e-05
7 *1812:A *1810:A 0.000117116
8 *1812:A *1812:B 8.65961e-05
9 *1812:A *283:6 5.05521e-05
10 *273:12 *1799:B 2.75145e-05
11 *273:12 *1809:A 7.70938e-05
12 *273:12 *1846:A2 6.51782e-07
13 *273:12 *1846:B1 2.76742e-05
14 *273:12 *1846:B2 1.0124e-05
15 *273:12 *277:10 0.000158965
16 *273:12 *281:10 1.34361e-05
17 *273:12 *281:19 9.23971e-05
18 *273:12 *352:13 1.73877e-05
19 *273:12 *469:42 1.91597e-05
20 *1800:A1 *273:12 2.8185e-05
21 *1805:B *1811:A 0
*RES
1 *1796:Y *273:12 20.955 
2 *273:12 *1811:A 8.535 
3 *273:12 *1812:A 12.705 
*END

*D_NET *274 0.00210276
*CONN
*I *1845:A1 I *D sky130_fd_sc_hd__a21o_2
*I *1844:A I *D sky130_fd_sc_hd__or2_2
*I *1810:A I *D sky130_fd_sc_hd__xnor2_2
*I *1797:Y O *D sky130_fd_sc_hd__o21ai_2
*CAP
1 *1845:A1 8.69372e-05
2 *1844:A 0.00017571
3 *1810:A 8.45238e-05
4 *1797:Y 0.000358112
5 *274:21 0.000436981
6 *274:8 0.000616969
7 *1844:A *1845:B1 7.64733e-05
8 *1845:A1 *1845:B1 2.75229e-05
9 *1845:A1 *1853:A 1.0124e-05
10 *274:8 *1809:B 0
11 *274:8 *1819:B1 0
12 *274:8 *284:10 0
13 *274:8 *352:13 0
14 *274:21 *1809:B 0
15 *274:21 *1810:B 0
16 *274:21 *1819:B1 0
17 *274:21 *1845:A2 0
18 *274:21 *285:10 0.000112291
19 *1812:A *1810:A 0.000117116
*RES
1 *1797:Y *274:8 9.315 
2 *274:8 *1810:A 5.43 
3 *274:8 *274:21 5.675 
4 *274:21 *1844:A 3.79 
5 *274:21 *1845:A1 2.74 
*END

*D_NET *275 0.00185781
*CONN
*I *1850:A I *D sky130_fd_sc_hd__or3_2
*I *1849:A1 I *D sky130_fd_sc_hd__o21ai_2
*I *1800:B1 I *D sky130_fd_sc_hd__a21oi_2
*I *1798:X O *D sky130_fd_sc_hd__and4_2
*CAP
1 *1850:A 0
2 *1849:A1 6.0525e-05
3 *1800:B1 0
4 *1798:X 0.000296501
5 *275:25 0.000290438
6 *275:10 0.000526414
7 *1849:A1 *1849:A2 0
8 *1849:A1 *1851:A 9.16237e-05
9 *1849:A1 *383:12 0.00018471
10 *275:10 *1801:A1 4.38278e-05
11 *275:10 *1801:A2 3.64998e-06
12 *275:10 *1803:A 7.68414e-06
13 *275:10 *279:19 0
14 *275:10 *470:37 0.000113797
15 *275:25 *1849:A2 0
16 *275:25 *1850:B 2.75145e-05
17 *275:25 *1851:A 1.16578e-05
18 *275:25 *1851:B 0
19 *275:25 *1896:B 2.96426e-05
20 *275:25 *279:19 0
21 *275:25 *383:12 0.000119504
22 *275:25 *470:37 4.44927e-05
23 *1800:A1 *275:10 5.83121e-06
*RES
1 *1798:X *275:10 7.5 
2 *275:10 *1800:B1 3.6 
3 *275:10 *275:25 7.085 
4 *275:25 *1849:A1 7.745 
5 *275:25 *1850:A 1.6 
*END

*D_NET *276 0.00220825
*CONN
*I *1918:A1 I *D sky130_fd_sc_hd__a21o_2
*I *1848:A1 I *D sky130_fd_sc_hd__o21a_2
*I *1895:C I *D sky130_fd_sc_hd__and3_2
*I *1800:A2 I *D sky130_fd_sc_hd__a21oi_2
*I *1799:Y O *D sky130_fd_sc_hd__nand2_2
*CAP
1 *1918:A1 0.000121345
2 *1848:A1 9.37807e-05
3 *1895:C 3.3315e-05
4 *1800:A2 6.47185e-05
5 *1799:Y 7.06355e-05
6 *276:30 0.000254819
7 *276:19 0.000140458
8 *276:8 0.000202804
9 *1800:A2 *1848:B1 1.86911e-05
10 *1800:A2 *383:12 6.14689e-05
11 *1800:A2 *470:24 9.54399e-05
12 *1848:A1 *1847:A 4.82863e-05
13 *1848:A1 *1847:B 0.000127931
14 *1848:A1 *1848:B1 9.14049e-06
15 *1895:C *470:16 1.1392e-05
16 *1918:A1 *1848:B1 1.23455e-05
17 *1918:A1 *1918:B1 0
18 *1918:A1 *319:10 2.49909e-05
19 *1918:A1 *470:10 0.000154488
20 *1918:A1 *470:16 5.33173e-05
21 *276:19 *1848:B1 5.37442e-05
22 *276:19 *383:12 6.23119e-05
23 *276:19 *470:16 9.84957e-05
24 *276:19 *470:24 0.000154481
25 *276:30 *1848:B1 6.89977e-05
26 *276:30 *470:16 0.000139931
27 *1800:A1 *1800:A2 3.09164e-05
*RES
1 *1799:Y *276:8 4.395 
2 *276:8 *1800:A2 5.49 
3 *276:8 *276:19 2.91 
4 *276:19 *1895:C 4.05 
5 *276:19 *276:30 1.6425 
6 *276:30 *1848:A1 5.6475 
7 *276:30 *1918:A1 6.4425 
*END

*D_NET *277 0.000856501
*CONN
*I *1801:B1 I *D sky130_fd_sc_hd__a21oi_2
*I *1802:C I *D sky130_fd_sc_hd__and3_2
*I *1800:Y O *D sky130_fd_sc_hd__a21oi_2
*CAP
1 *1801:B1 0
2 *1802:C 5.58484e-05
3 *1800:Y 9.85463e-05
4 *277:10 0.000154395
5 *1802:C *1801:A1 0.000120186
6 *1802:C *383:12 1.34361e-05
7 *1802:C *452:51 0
8 *1802:C *469:32 3.86529e-05
9 *277:10 *383:12 7.36484e-05
10 *277:10 *470:37 4.16353e-05
11 *1800:A1 *1802:C 4.43871e-06
12 *1800:A1 *277:10 9.67482e-05
13 *273:12 *277:10 0.000158965
*RES
1 *1800:Y *277:10 6.72 
2 *277:10 *1802:C 5.235 
3 *277:10 *1801:B1 3.6 
*END

*D_NET *278 0.000285204
*CONN
*I *1803:A I *D sky130_fd_sc_hd__nor2_2
*I *1801:Y O *D sky130_fd_sc_hd__a21oi_2
*CAP
1 *1803:A 0.000108341
2 *1801:Y 0.000108341
3 *1803:A *1801:A1 1.08758e-05
4 *1803:A *1801:A2 4.99619e-05
5 *275:10 *1803:A 7.68414e-06
*RES
1 *1801:Y *1803:A 5.06 
*END

*D_NET *279 0.00255261
*CONN
*I *1849:A2 I *D sky130_fd_sc_hd__o21ai_2
*I *1850:B I *D sky130_fd_sc_hd__or3_2
*I *1803:B I *D sky130_fd_sc_hd__nor2_2
*I *1802:X O *D sky130_fd_sc_hd__and3_2
*CAP
1 *1849:A2 0.000254909
2 *1850:B 0.000136829
3 *1803:B 0
4 *1802:X 0.000254355
5 *279:19 0.000742498
6 *279:10 0.000605115
7 *1849:A2 *1851:A 0
8 *1849:A2 *1896:B 6.36578e-05
9 *1849:A2 *1898:C1 0
10 *1849:A2 *383:12 0
11 *1850:B *1851:A 9.80943e-06
12 *1850:B *1851:B 0.000124895
13 *279:10 *1717:A 0.000160641
14 *279:10 *470:39 0
15 *279:19 *1804:B1 0
16 *279:19 *470:37 0
17 *1805:A *279:10 0.00011852
18 *1805:A *279:19 9.50342e-06
19 *1849:A1 *1849:A2 0
20 *191:23 *279:10 4.43682e-05
21 *275:10 *279:19 0
22 *275:25 *1849:A2 0
23 *275:25 *1850:B 2.75145e-05
24 *275:25 *279:19 0
*RES
1 *1802:X *279:10 7.5 
2 *279:10 *1803:B 3.6 
3 *279:10 *279:19 5.715 
4 *279:19 *1850:B 5.43 
5 *279:19 *1849:A2 7.74 
*END

*D_NET *280 0.000863404
*CONN
*I *1805:C I *D sky130_fd_sc_hd__nor3_2
*I *1804:B1 I *D sky130_fd_sc_hd__o21a_2
*I *1803:Y O *D sky130_fd_sc_hd__nor2_2
*CAP
1 *1805:C 7.83331e-05
2 *1804:B1 0.000111363
3 *1803:Y 9.6378e-05
4 *280:6 0.000286074
5 *1804:B1 *281:19 0
6 *1805:A *1804:B1 0
7 *1805:A *280:6 0.00012657
8 *1805:B *1804:B1 0.000164686
9 *279:19 *1804:B1 0
*RES
1 *1803:Y *280:6 3.43 
2 *280:6 *1804:B1 8 
3 *280:6 *1805:C 2.74 
*END

*D_NET *281 0.00193465
*CONN
*I *1897:A1 I *D sky130_fd_sc_hd__o21ai_2
*I *1852:A I *D sky130_fd_sc_hd__xor2_2
*I *1898:A1 I *D sky130_fd_sc_hd__o211ai_2
*I *1806:A I *D sky130_fd_sc_hd__or2_2
*I *1804:X O *D sky130_fd_sc_hd__o21a_2
*CAP
1 *1897:A1 7.44451e-05
2 *1852:A 0
3 *1898:A1 0
4 *1806:A 0
5 *1804:X 0.000252556
6 *281:30 0.000164907
7 *281:19 0.000436094
8 *281:10 0.000598188
9 *1897:A1 *1852:B 4.69645e-05
10 *1897:A1 *1897:A2 4.82863e-05
11 *281:19 *1809:A 0
12 *281:19 *1897:A2 5.53249e-06
13 *281:19 *320:10 7.89689e-05
14 *281:19 *352:13 0
15 *281:30 *1897:A2 8.42161e-05
16 *281:30 *352:13 0
17 *1804:B1 *281:19 0
18 *1805:B *281:10 0
19 *1805:B *281:19 0
20 *1811:A *281:10 3.86607e-05
21 *273:12 *281:10 1.34361e-05
22 *273:12 *281:19 9.23971e-05
*RES
1 *1804:X *281:10 6.9 
2 *281:10 *1806:A 3.6 
3 *281:10 *281:19 6.735 
4 *281:19 *1898:A1 3.6 
5 *281:19 *281:30 3.89 
6 *281:30 *1852:A 1.6 
7 *281:30 *1897:A1 3.1 
*END

*D_NET *282 6.4827e-05
*CONN
*I *1806:B I *D sky130_fd_sc_hd__or2_2
*I *1805:Y O *D sky130_fd_sc_hd__nor3_2
*CAP
1 *1806:B 3.24135e-05
2 *1805:Y 3.24135e-05
*RES
1 *1805:Y *1806:B 3.65 
*END

*D_NET *283 0.000554478
*CONN
*I *1808:A I *D sky130_fd_sc_hd__nor2_2
*I *1809:A I *D sky130_fd_sc_hd__xor2_2
*I *1806:X O *D sky130_fd_sc_hd__or2_2
*CAP
1 *1808:A 0
2 *1809:A 6.86314e-05
3 *1806:X 3.93619e-05
4 *283:6 0.000107993
5 *1809:A *352:13 0.000210846
6 *1812:A *283:6 5.05521e-05
7 *273:12 *1809:A 7.70938e-05
8 *281:19 *1809:A 0
*RES
1 *1806:X *283:6 2.395 
2 *283:6 *1809:A 8 
3 *283:6 *1808:A 1.6 
*END

*D_NET *284 0.00183361
*CONN
*I *1809:B I *D sky130_fd_sc_hd__xor2_2
*I *1808:B I *D sky130_fd_sc_hd__nor2_2
*I *1807:Y O *D sky130_fd_sc_hd__a21oi_2
*CAP
1 *1809:B 5.07514e-05
2 *1808:B 0
3 *1807:Y 0.000431857
4 *284:10 0.000482608
5 *1809:B *285:10 0.000166346
6 *1809:B *352:13 0.000203002
7 *284:10 *352:13 0.000468679
8 *1807:B1 *284:10 3.03684e-05
9 *274:8 *1809:B 0
10 *274:8 *284:10 0
11 *274:21 *1809:B 0
*RES
1 *1807:Y *284:10 11.235 
2 *284:10 *1808:B 3.6 
3 *284:10 *1809:B 4.4 
*END

*D_NET *285 0.000836011
*CONN
*I *1845:B1 I *D sky130_fd_sc_hd__a21o_2
*I *1844:B I *D sky130_fd_sc_hd__or2_2
*I *1808:Y O *D sky130_fd_sc_hd__nor2_2
*CAP
1 *1845:B1 7.2462e-05
2 *1844:B 0
3 *1808:Y 9.92536e-05
4 *285:10 0.000171716
5 *1845:B1 *1853:A 3.72916e-05
6 *285:10 *1845:A2 0
7 *285:10 *352:13 7.26551e-05
8 *1809:B *285:10 0.000166346
9 *1844:A *1845:B1 7.64733e-05
10 *1845:A1 *1845:B1 2.75229e-05
11 *274:21 *285:10 0.000112291
*RES
1 *1808:Y *285:10 9.02 
2 *285:10 *1844:B 1.6 
3 *285:10 *1845:B1 3.445 
*END

*D_NET *286 0.000556397
*CONN
*I *1845:A2 I *D sky130_fd_sc_hd__a21o_2
*I *1810:B I *D sky130_fd_sc_hd__xnor2_2
*I *1809:X O *D sky130_fd_sc_hd__xor2_2
*CAP
1 *1845:A2 0.000105109
2 *1810:B 7.36252e-05
3 *1809:X 0
4 *286:6 0.000178734
5 *1810:B *1819:B1 0.000166346
6 *1845:A2 *1819:B1 3.25831e-05
7 *1845:A2 *2091:A 0
8 *274:21 *1810:B 0
9 *274:21 *1845:A2 0
10 *285:10 *1845:A2 0
*RES
1 *1809:X *286:6 3.6 
2 *286:6 *1810:B 5.49 
3 *286:6 *1845:A2 5.49 
*END

*D_NET *287 0.000979244
*CONN
*I *1812:B I *D sky130_fd_sc_hd__xor2_2
*I *1811:B I *D sky130_fd_sc_hd__nor2_2
*I *1810:Y O *D sky130_fd_sc_hd__xnor2_2
*CAP
1 *1812:B 8.50083e-05
2 *1811:B 0.000290512
3 *1810:Y 0
4 *287:4 0.000375521
5 *1811:B *1813:B 0
6 *1811:B *345:8 0.000141606
7 *1812:A *1812:B 8.65961e-05
*RES
1 *1810:Y *287:4 1.6 
2 *287:4 *1811:B 10.445 
3 *287:4 *1812:B 1.4475 
*END

*D_NET *288 0.00129533
*CONN
*I *1819:B1 I *D sky130_fd_sc_hd__a21o_2
*I *1811:Y O *D sky130_fd_sc_hd__nor2_2
*CAP
1 *1819:B1 0.000422463
2 *1811:Y 0.000422463
3 *1819:B1 *1906:A1 0.000163204
4 *1819:B1 *2091:A 0
5 *1819:B1 *295:12 8.8266e-05
6 *1819:B1 *345:8 0
7 *1810:B *1819:B1 0.000166346
8 *1845:A2 *1819:B1 3.25831e-05
9 *274:8 *1819:B1 0
10 *274:21 *1819:B1 0
*RES
1 *1811:Y *1819:B1 15.12 
*END

*D_NET *289 0.00127737
*CONN
*I *1819:A2 I *D sky130_fd_sc_hd__a21o_2
*I *1813:B I *D sky130_fd_sc_hd__xnor2_2
*I *1812:X O *D sky130_fd_sc_hd__xor2_2
*CAP
1 *1819:A2 9.09704e-05
2 *1813:B 0.000124104
3 *1812:X 0.00015417
4 *289:8 0.000369245
5 *1813:B *1818:B 8.57024e-05
6 *1813:B *2087:A 8.40269e-05
7 *1813:B *345:8 0
8 *1819:A2 *345:8 0
9 *1811:B *1813:B 0
10 *1819:A1 *1813:B 0.000132096
11 *1819:A1 *1819:A2 0.000185411
12 *241:8 *1813:B 5.16418e-05
*RES
1 *1812:X *289:8 5.775 
2 *289:8 *1813:B 6.54 
3 *289:8 *1819:A2 5.745 
*END

*D_NET *290 0.000619299
*CONN
*I *1815:A I *D sky130_fd_sc_hd__nor2_2
*I *1816:A I *D sky130_fd_sc_hd__xor2_2
*I *1813:Y O *D sky130_fd_sc_hd__xnor2_2
*CAP
1 *1815:A 0.00012843
2 *1816:A 9.10133e-05
3 *1813:Y 0
4 *290:6 0.000219444
5 *1815:A *1866:B 7.45712e-05
6 *1816:A *1818:B 0.000105841
*RES
1 *1813:Y *290:6 3.6 
2 *290:6 *1816:A 5.745 
3 *290:6 *1815:A 6.195 
*END

*D_NET *291 0.00140853
*CONN
*I *1815:B I *D sky130_fd_sc_hd__nor2_2
*I *1816:B I *D sky130_fd_sc_hd__xor2_2
*I *1814:X O *D sky130_fd_sc_hd__and2b_2
*CAP
1 *1815:B 8.78547e-05
2 *1816:B 0
3 *1814:X 0.000204038
4 *291:10 0.000291893
5 *1815:B *1866:B 0.000366994
6 *1815:B *1869:B1 0.000319174
7 *1815:B *2087:A 0
8 *291:10 *1866:B 0.000111061
9 *291:10 *2087:A 0
10 y[4] *291:10 0
11 *1819:A1 *1815:B 0
12 *206:16 *291:10 2.75145e-05
*RES
1 *1814:X *291:10 6.465 
2 *291:10 *1816:B 2 
3 *291:10 *1815:B 7.785 
*END

*D_NET *292 0.00140758
*CONN
*I *1869:B1 I *D sky130_fd_sc_hd__a21o_4
*I *1815:Y O *D sky130_fd_sc_hd__nor2_2
*CAP
1 *1869:B1 0.000435763
2 *1815:Y 0.000435763
3 *1869:B1 *1818:A 7.60965e-05
4 *1869:B1 *1869:A1 2.96334e-05
5 *1869:B1 *1869:A2 8.57024e-05
6 *1869:B1 *2087:A 0
7 *1869:B1 *294:12 2.54522e-05
8 *1815:B *1869:B1 0.000319174
9 *1819:A1 *1869:B1 0
*RES
1 *1815:Y *1869:B1 15.825 
*END

*D_NET *293 0.00120361
*CONN
*I *1818:A I *D sky130_fd_sc_hd__xor2_2
*I *1869:A2 I *D sky130_fd_sc_hd__a21o_4
*I *1816:X O *D sky130_fd_sc_hd__xor2_2
*CAP
1 *1818:A 0.000265416
2 *1869:A2 1.964e-05
3 *1816:X 0.000285056
4 *1818:A *1818:B 0
5 *1818:A *294:12 0.000422492
6 *1869:A2 *1869:A1 4.92062e-05
7 *1869:B1 *1818:A 7.60965e-05
8 *1869:B1 *1869:A2 8.57024e-05
*RES
1 *1816:X *1869:A2 3.995 
2 *1816:X *1818:A 12.99 
*END

*D_NET *294 0.00313847
*CONN
*I *2087:A I *D sky130_fd_sc_hd__buf_6
*I *1869:A1 I *D sky130_fd_sc_hd__a21o_4
*I *1817:X O *D sky130_fd_sc_hd__a21o_4
*CAP
1 *2087:A 0.000238039
2 *1869:A1 0.000151678
3 *1817:X 0.000659969
4 *294:12 0.00104969
5 *2087:A *1818:B 4.35348e-05
6 *294:12 *1745:A2 0.000109364
7 *294:12 *1818:B 4.33681e-05
8 *294:12 *1866:B 0
9 *1813:A *2087:A 8.49205e-05
10 *1813:B *2087:A 8.40269e-05
11 *1815:B *2087:A 0
12 *1818:A *294:12 0.000422492
13 *1869:A2 *1869:A1 4.92062e-05
14 *1869:B1 *1869:A1 2.96334e-05
15 *1869:B1 *2087:A 0
16 *1869:B1 *294:12 2.54522e-05
17 *2054:A *294:12 0
18 *241:8 *2087:A 0.0001471
19 *291:10 *2087:A 0
*RES
1 *1817:X *294:12 17 
2 *294:12 *1869:A1 3.7 
3 *294:12 *2087:A 10.61 
*END

*D_NET *295 0.00120701
*CONN
*I *1868:A I *D sky130_fd_sc_hd__xnor2_2
*I *1867:B I *D sky130_fd_sc_hd__and2b_2
*I *1819:X O *D sky130_fd_sc_hd__a21o_2
*CAP
1 *1868:A 0.000114718
2 *1867:B 0
3 *1819:X 0.000268988
4 *295:12 0.000383706
5 *1868:A *1868:B 0.000203178
6 *1868:A *1906:B1 0.000122155
7 *295:12 *1906:A1 2.30292e-05
8 *295:12 *1906:A2 0
9 *295:12 *1906:B1 0
10 *295:12 *2091:A 0
11 *295:12 *344:14 0
12 *1819:A1 *295:12 2.97004e-06
13 *1819:B1 *295:12 8.8266e-05
*RES
1 *1819:X *295:12 10.16 
2 *295:12 *1867:B 1.6 
3 *295:12 *1868:A 4.84 
*END

*D_NET *296 0.00226055
*CONN
*I *1843:A I *D sky130_fd_sc_hd__xnor2_2
*I *1878:A2 I *D sky130_fd_sc_hd__a21oi_2
*I *1820:X O *D sky130_fd_sc_hd__a21o_2
*CAP
1 *1843:A 0
2 *1878:A2 0.000330418
3 *1820:X 0.000671128
4 *296:14 0.00100155
5 *1878:A2 *1841:B 0
6 *1878:A2 *1843:B 0
7 *1878:A2 *1878:A1 5.54709e-05
8 *1878:A2 *306:8 0
9 *1791:B *296:14 0
10 *1793:A *296:14 0
11 *1793:B *296:14 2.03321e-05
12 *1795:A *296:14 8.78813e-05
13 *1820:B1 *296:14 9.37731e-05
*RES
1 *1820:X *296:14 16.925 
2 *296:14 *1878:A2 11.015 
3 *296:14 *1843:A 1.6 
*END

*D_NET *297 0.00179515
*CONN
*I *2094:A I *D sky130_fd_sc_hd__buf_2
*I *1822:B I *D sky130_fd_sc_hd__or2_2
*I *1821:Y O *D sky130_fd_sc_hd__a21oi_2
*CAP
1 *2094:A 0.000154565
2 *1822:B 0
3 *1821:Y 0.000219578
4 *297:10 0.000374144
5 *2094:A *1830:B 0
6 *2094:A *1842:B 0.000201508
7 *2094:A *1881:A2 0.00011964
8 *1786:A *2094:A 0
9 *1786:A *297:10 0
10 *1789:A *297:10 0.000105849
11 *1790:B *297:10 0.000155176
12 *1821:A2 *297:10 3.76916e-05
13 *1822:A *2094:A 5.53249e-06
14 *1822:A *297:10 8.08439e-05
15 *256:14 *297:10 8.40269e-05
16 *257:10 *297:10 0
17 *263:8 *2094:A 0
18 *264:8 *297:10 9.428e-05
19 *265:10 *297:10 0.000162318
*RES
1 *1821:Y *297:10 10.365 
2 *297:10 *1822:B 3.6 
3 *297:10 *2094:A 7.425 
*END

*D_NET *298 0.000232158
*CONN
*I *1830:A I *D sky130_fd_sc_hd__xnor2_2
*I *1822:X O *D sky130_fd_sc_hd__or2_2
*CAP
1 *1830:A 9.19331e-05
2 *1822:X 9.19331e-05
3 *1830:A *1830:B 4.82919e-05
*RES
1 *1822:X *1830:A 4.685 
*END

*D_NET *299 0.000318219
*CONN
*I *1825:B1 I *D sky130_fd_sc_hd__o21a_2
*I *1823:X O *D sky130_fd_sc_hd__a22o_2
*CAP
1 *1825:B1 8.04923e-05
2 *1823:X 8.04923e-05
3 *1825:B1 *1823:A1 1.01661e-05
4 *1825:B1 *1825:A2 9.71067e-05
5 *1825:B1 *445:73 0
6 *259:34 *1825:B1 4.99619e-05
*RES
1 *1823:X *1825:B1 9.03 
*END

*D_NET *300 0.00100677
*CONN
*I *1911:B1 I *D sky130_fd_sc_hd__a21o_2
*I *1825:A2 I *D sky130_fd_sc_hd__o21a_2
*I *1824:Y O *D sky130_fd_sc_hd__nand2_2
*CAP
1 *1911:B1 5.77366e-05
2 *1825:A2 0.000105704
3 *1824:Y 0
4 *300:4 0.000163441
5 *1825:A2 *1823:A1 8.6099e-05
6 *1825:A2 *1824:A 0.00015997
7 *1825:A2 *1824:B 0.000158297
8 *1825:A2 *445:73 0
9 *1911:B1 *1824:B 4.66108e-05
10 *1911:B1 *1912:B 8.8266e-05
11 *1911:B1 *366:12 4.35432e-05
12 *1825:B1 *1825:A2 9.71067e-05
*RES
1 *1824:Y *300:4 1.6 
2 *300:4 *1825:A2 9.275 
3 *300:4 *1911:B1 3.085 
*END

*D_NET *301 0.00100426
*CONN
*I *1827:A I *D sky130_fd_sc_hd__nand2_2
*I *1828:A I *D sky130_fd_sc_hd__xnor2_2
*I *1825:X O *D sky130_fd_sc_hd__o21a_2
*CAP
1 *1827:A 0.000257594
2 *1828:A 0
3 *1825:X 0.000121545
4 *301:8 0.000379139
5 *1827:A *1827:B 5.50989e-05
6 *1827:A *302:10 1.22762e-05
7 *1827:A *303:12 5.56629e-05
8 *259:34 *1827:A 1.16578e-05
9 *259:34 *301:8 0.000111285
*RES
1 *1825:X *301:8 3.79 
2 *301:8 *1828:A 1.6 
3 *301:8 *1827:A 10.175 
*END

*D_NET *302 0.00137734
*CONN
*I *1827:B I *D sky130_fd_sc_hd__nand2_2
*I *1828:B I *D sky130_fd_sc_hd__xnor2_2
*I *1826:Y O *D sky130_fd_sc_hd__o21bai_2
*CAP
1 *1827:B 7.417e-05
2 *1828:B 0
3 *1826:Y 0.000258444
4 *302:10 0.000332614
5 *1827:B *1915:B 4.06545e-05
6 *1827:B *303:12 3.05295e-05
7 *1827:B *514:10 7.70828e-05
8 *1827:B *514:14 0.000109009
9 *302:10 *1842:B 4.52061e-05
10 *302:10 *514:14 0.000342254
11 *1827:A *1827:B 5.50989e-05
12 *1827:A *302:10 1.22762e-05
*RES
1 *1826:Y *302:10 9.015 
2 *302:10 *1828:B 3.6 
3 *302:10 *1827:B 6.195 
*END

*D_NET *303 0.000933017
*CONN
*I *1880:A I *D sky130_fd_sc_hd__xnor2_2
*I *1911:A2 I *D sky130_fd_sc_hd__a21o_2
*I *1827:Y O *D sky130_fd_sc_hd__nand2_2
*CAP
1 *1880:A 0
2 *1911:A2 7.90075e-05
3 *1827:Y 0.0001585
4 *303:12 0.000237507
5 *1911:A2 *1880:B 4.82863e-05
6 *1911:A2 *1912:B 5.93869e-05
7 *303:12 *1912:B 0.000123225
8 *303:12 *514:10 5.43211e-05
9 *1827:A *303:12 5.56629e-05
10 *1827:B *303:12 3.05295e-05
11 *1911:A1 *1911:A2 8.65905e-05
*RES
1 *1827:Y *303:12 9.14 
2 *303:12 *1911:A2 3.445 
3 *303:12 *1880:A 1.6 
*END

*D_NET *304 0.00119294
*CONN
*I *1829:B I *D sky130_fd_sc_hd__xnor2_2
*I *1881:B1 I *D sky130_fd_sc_hd__a21oi_2
*I *1828:Y O *D sky130_fd_sc_hd__xnor2_2
*CAP
1 *1829:B 0
2 *1881:B1 0.000116649
3 *1828:Y 0.000291844
4 *304:10 0.000408494
5 *1881:B1 *1842:B 3.00381e-05
6 *1881:B1 *356:10 0.000164686
7 *304:10 *356:10 0.000118513
8 *1829:A *1881:B1 1.44259e-05
9 *263:8 *1881:B1 4.82863e-05
*RES
1 *1828:Y *304:10 7.5 
2 *304:10 *1881:B1 6.45 
3 *304:10 *1829:B 3.6 
*END

*D_NET *305 0.000637568
*CONN
*I *1830:B I *D sky130_fd_sc_hd__xnor2_2
*I *1829:Y O *D sky130_fd_sc_hd__xnor2_2
*CAP
1 *1830:B 0.000294638
2 *1829:Y 0.000294638
3 *1830:B *1841:A 0
4 *1822:A *1830:B 0
5 *1829:A *1830:B 0
6 *1830:A *1830:B 4.82919e-05
7 *2094:A *1830:B 0
*RES
1 *1829:Y *1830:B 11.835 
*END

*D_NET *306 0.00060492
*CONN
*I *1841:A I *D sky130_fd_sc_hd__nor2_2
*I *1842:A I *D sky130_fd_sc_hd__xor2_2
*I *1830:Y O *D sky130_fd_sc_hd__xnor2_2
*CAP
1 *1841:A 0.000116448
2 *1842:A 0
3 *1830:Y 0.000111466
4 *306:8 0.000227914
5 *1841:A *1841:B 0.000116509
6 *306:8 *1841:B 3.25831e-05
7 *1830:B *1841:A 0
8 *1878:A2 *306:8 0
*RES
1 *1830:Y *306:8 5.235 
2 *306:8 *1842:A 3.6 
3 *306:8 *1841:A 6.3 
*END

*D_NET *307 0.000884458
*CONN
*I *1840:A I *D sky130_fd_sc_hd__xnor2_2
*I *1831:X O *D sky130_fd_sc_hd__a21o_2
*CAP
1 *1840:A 0.000243084
2 *1831:X 0.000243084
3 *1840:A *1840:B 5.10008e-05
4 *1831:B1 *1840:A 4.88478e-05
5 *1888:C1 *1840:A 0.000298442
*RES
1 *1831:X *1840:A 12.105 
*END

*D_NET *308 0.00176954
*CONN
*I *1834:A I *D sky130_fd_sc_hd__nor2_2
*I *1836:A I *D sky130_fd_sc_hd__or3_2
*I *1832:Y O *D sky130_fd_sc_hd__a22oi_2
*CAP
1 *1834:A 0.000307317
2 *1836:A 5.52305e-05
3 *1832:Y 4.27834e-05
4 *308:8 0.000405331
5 *1834:A *1837:A 2.46007e-05
6 *1834:A *1837:B 0
7 *1834:A *1885:A 2.23407e-05
8 *1834:A *1913:A 4.18603e-06
9 *1834:A *309:18 0
10 *1834:A *512:16 0.000130072
11 *1836:A *1769:B 0.00023468
12 *1836:A *1836:C 7.40446e-05
13 *1836:A *1885:B 1.91597e-05
14 *1836:A *311:12 0.000160641
15 *1836:A *360:10 1.61831e-05
16 *308:8 *1769:B 0.000115464
17 *308:8 *1885:A 2.68721e-05
18 *308:8 *495:10 9.30717e-05
19 *1885:C *1834:A 2.59981e-05
20 *1885:C *308:8 1.1561e-05
21 *2066:A *1834:A 0
*RES
1 *1832:Y *308:8 5.235 
2 *308:8 *1836:A 6.12 
3 *308:8 *1834:A 9.825 
*END

*D_NET *309 0.00341914
*CONN
*I *1836:B I *D sky130_fd_sc_hd__or3_2
*I *1913:A I *D sky130_fd_sc_hd__or3_4
*I *1834:B I *D sky130_fd_sc_hd__nor2_2
*I *1833:X O *D sky130_fd_sc_hd__and4_2
*CAP
1 *1836:B 4.98455e-05
2 *1913:A 0.00062063
3 *1834:B 0
4 *1833:X 0.000175304
5 *309:18 0.000906019
6 *309:12 0.000510538
7 *1836:B *1769:B 8.65961e-05
8 *1913:A *1887:B 1.83847e-05
9 *1913:A *364:14 0
10 *309:12 *1769:B 8.49205e-05
11 *309:12 *495:18 9.30717e-05
12 *309:18 *1837:A 6.20952e-05
13 *309:18 *1837:B 0.000342247
14 *309:18 *1839:B 0
15 *309:18 *360:10 0
16 *309:18 *364:14 0.000189284
17 *309:18 *512:16 5.98004e-06
18 *1770:A2 *309:12 0.000136877
19 *1834:A *1913:A 4.18603e-06
20 *1834:A *309:18 0
21 *1885:C *309:12 0.000114492
22 *1885:C *309:18 1.86688e-05
*RES
1 *1833:X *309:12 9.305 
2 *309:12 *309:18 9.53 
3 *309:18 *1834:B 3.6 
4 *309:18 *1913:A 12.585 
5 *309:12 *1836:B 2.395 
*END

*D_NET *310 0.00023286
*CONN
*I *1837:A I *D sky130_fd_sc_hd__xnor2_2
*I *1834:Y O *D sky130_fd_sc_hd__nor2_2
*CAP
1 *1837:A 4.72644e-05
2 *1834:Y 4.72644e-05
3 *1837:A *512:16 5.16348e-05
4 *1834:A *1837:A 2.46007e-05
5 *309:18 *1837:A 6.20952e-05
*RES
1 *1834:Y *1837:A 8.58 
*END

*D_NET *311 0.00202776
*CONN
*I *1836:C I *D sky130_fd_sc_hd__or3_2
*I *1837:B I *D sky130_fd_sc_hd__xnor2_2
*I *1835:Y O *D sky130_fd_sc_hd__nor2_2
*CAP
1 *1836:C 2.17514e-05
2 *1837:B 0.000121402
3 *1835:Y 0.00027292
4 *311:12 0.000416074
5 *1836:C *360:10 4.66826e-05
6 *1837:B *512:16 9.24127e-05
7 *311:12 *1885:A 0.000168433
8 *311:12 *1885:B 1.19928e-05
9 *311:12 *360:10 5.83121e-06
10 *311:12 *440:99 0.000120186
11 *1834:A *1837:B 0
12 *1836:A *1836:C 7.40446e-05
13 *1836:A *311:12 0.000160641
14 *1885:C *1837:B 1.71013e-05
15 *2064:A *311:12 5.78853e-05
16 *2066:A *311:12 9.8153e-05
17 *309:18 *1837:B 0.000342247
*RES
1 *1835:Y *311:12 12.485 
2 *311:12 *1837:B 9.53 
3 *311:12 *1836:C 2.395 
*END

*D_NET *312 0.00161864
*CONN
*I *1887:A I *D sky130_fd_sc_hd__xnor2_2
*I *1886:A_N I *D sky130_fd_sc_hd__and2b_2
*I *1836:X O *D sky130_fd_sc_hd__or3_2
*CAP
1 *1887:A 0.000136131
2 *1886:A_N 0.000122342
3 *1836:X 0.000218764
4 *312:8 0.000477237
5 *1887:A *1887:B 0.000127245
6 *1887:A *1913:B 0
7 *1887:A *1913:C 0
8 *1887:A *360:10 6.85516e-05
9 *1887:A *364:14 1.94723e-05
10 *312:8 *1838:B 0
11 *312:8 *1839:B 0
12 *312:8 *313:21 0
13 *312:8 *360:10 0.000448895
14 *1838:A *1887:A 0
*RES
1 *1836:X *312:8 8.805 
2 *312:8 *1886:A_N 5.085 
3 *312:8 *1887:A 6.705 
*END

*D_NET *313 0.00255653
*CONN
*I *1838:B I *D sky130_fd_sc_hd__and2_2
*I *1889:A2 I *D sky130_fd_sc_hd__o21a_4
*I *1839:B I *D sky130_fd_sc_hd__xor2_2
*I *1888:A2 I *D sky130_fd_sc_hd__a211o_4
*I *1837:Y O *D sky130_fd_sc_hd__xnor2_2
*CAP
1 *1838:B 0.000255558
2 *1889:A2 0
3 *1839:B 0.000180265
4 *1888:A2 0.000362031
5 *1837:Y 3.56407e-05
6 *313:21 0.000289493
7 *313:19 0.000364786
8 *313:6 0.000397672
9 *1838:B *1913:B 2.20732e-05
10 *1888:A2 *506:10 0.000176288
11 *313:6 *506:10 5.05437e-05
12 *1838:A *1838:B 0.000171821
13 *1838:A *313:21 9.50036e-05
14 *1888:C1 *1888:A2 7.08493e-05
15 *251:19 *1839:B 7.89767e-05
16 *251:19 *313:21 5.53249e-06
17 *309:18 *1839:B 0
18 *312:8 *1838:B 0
19 *312:8 *1839:B 0
20 *312:8 *313:21 0
*RES
1 *1837:Y *313:6 2.395 
2 *313:6 *1888:A2 7.6 
3 *313:6 *313:19 2 
4 *313:19 *313:21 2.145 
5 *313:21 *1839:B 5.0825 
6 *313:21 *1889:A2 3.6 
7 *313:19 *1838:B 8.025 
*END

*D_NET *314 0.000312288
*CONN
*I *1888:B1 I *D sky130_fd_sc_hd__a211o_4
*I *1838:X O *D sky130_fd_sc_hd__and2_2
*CAP
1 *1888:B1 0.000156144
2 *1838:X 0.000156144
3 *1838:A *1888:B1 0
*RES
1 *1838:X *1888:B1 9.285 
*END

*D_NET *315 0.000218388
*CONN
*I *1840:B I *D sky130_fd_sc_hd__xnor2_2
*I *1839:X O *D sky130_fd_sc_hd__xor2_2
*CAP
1 *1840:B 8.36935e-05
2 *1839:X 8.36935e-05
3 *1838:A *1840:B 0
4 *1840:A *1840:B 5.10008e-05
5 *251:19 *1840:B 0
*RES
1 *1839:X *1840:B 8.835 
*END

*D_NET *316 0.00388152
*CONN
*I *1841:B I *D sky130_fd_sc_hd__nor2_2
*I *1842:B I *D sky130_fd_sc_hd__xor2_2
*I *1840:Y O *D sky130_fd_sc_hd__xnor2_2
*CAP
1 *1841:B 9.77601e-05
2 *1842:B 0.00165385
3 *1840:Y 0.00155609
4 *1841:B *1878:A1 0
5 *1842:B *1881:A2 2.8185e-05
6 *1786:A *1842:B 2.75229e-05
7 *1826:B1_N *1842:B 2.75229e-05
8 *1841:A *1841:B 0.000116509
9 *1878:A2 *1841:B 0
10 *1881:B1 *1842:B 3.00381e-05
11 *2094:A *1842:B 0.000201508
12 *263:8 *1842:B 6.47326e-05
13 *302:10 *1842:B 4.52061e-05
14 *306:8 *1841:B 3.25831e-05
*RES
1 *1840:Y *1842:B 19.5175 
2 *1842:B *1841:B 8 
*END

*D_NET *317 5.97061e-05
*CONN
*I *1878:B1 I *D sky130_fd_sc_hd__a21oi_2
*I *1841:Y O *D sky130_fd_sc_hd__nor2_2
*CAP
1 *1878:B1 2.9853e-05
2 *1841:Y 2.9853e-05
*RES
1 *1841:Y *1878:B1 3.65 
*END

*D_NET *318 0.000672489
*CONN
*I *1878:A1 I *D sky130_fd_sc_hd__a21oi_2
*I *1843:B I *D sky130_fd_sc_hd__xnor2_2
*I *1842:X O *D sky130_fd_sc_hd__xor2_2
*CAP
1 *1878:A1 0.000207711
2 *1843:B 0.000100798
3 *1842:X 0
4 *318:6 0.000308509
5 *1841:B *1878:A1 0
6 *1878:A2 *1843:B 0
7 *1878:A2 *1878:A1 5.54709e-05
*RES
1 *1842:X *318:6 3.6 
2 *318:6 *1843:B 5.235 
3 *318:6 *1878:A1 7.26 
*END

*D_NET *319 0.00402435
*CONN
*I *1855:A I *D sky130_fd_sc_hd__xnor2_2
*I *1854:A I *D sky130_fd_sc_hd__nor2_2
*I *1843:Y O *D sky130_fd_sc_hd__xnor2_2
*CAP
1 *1855:A 2.83889e-05
2 *1854:A 0.000116451
3 *1843:Y 0.00162646
4 *319:10 0.0017713
5 *1854:A *1854:B 0
6 *319:10 *1896:A 2.75229e-05
7 *319:10 *1899:A 9.2741e-05
8 *319:10 *1918:A2 9.2741e-05
9 *319:10 *1918:B1 7.35813e-05
10 *319:10 *371:6 2.75145e-05
11 *319:10 *374:10 0.000142661
12 *1918:A1 *319:10 2.49909e-05
*RES
1 *1843:Y *319:10 23.125 
2 *319:10 *1854:A 7.49 
3 *319:10 *1855:A 2.05 
*END

*D_NET *320 0.00107384
*CONN
*I *1897:A2 I *D sky130_fd_sc_hd__o21ai_2
*I *1898:A2 I *D sky130_fd_sc_hd__o211ai_2
*I *1844:X O *D sky130_fd_sc_hd__or2_2
*CAP
1 *1897:A2 0.000107055
2 *1898:A2 0
3 *1844:X 0.000278069
4 *320:10 0.000385124
5 *1897:A2 *1852:B 8.65905e-05
6 *1897:A2 *1919:A 0
7 *1897:A2 *327:14 0
8 *320:10 *327:14 0
9 *1897:A1 *1897:A2 4.82863e-05
10 *281:19 *1897:A2 5.53249e-06
11 *281:19 *320:10 7.89689e-05
12 *281:30 *1897:A2 8.42161e-05
*RES
1 *1844:X *320:10 7.41 
2 *320:10 *1898:A2 3.6 
3 *320:10 *1897:A2 6.285 
*END

*D_NET *321 0.000830996
*CONN
*I *1853:A I *D sky130_fd_sc_hd__xnor2_2
*I *1845:X O *D sky130_fd_sc_hd__a21o_2
*CAP
1 *1853:A 0.00039179
2 *1845:X 0.00039179
3 *1853:A *352:13 0
4 *1845:A1 *1853:A 1.0124e-05
5 *1845:B1 *1853:A 3.72916e-05
*RES
1 *1845:X *1853:A 12.795 
*END

*D_NET *322 0.00122336
*CONN
*I *1848:B1 I *D sky130_fd_sc_hd__o21a_2
*I *1846:X O *D sky130_fd_sc_hd__a22o_2
*CAP
1 *1848:B1 0.000173012
2 *1846:X 0.000173012
3 *1848:B1 *1799:A 0.00011852
4 *1848:B1 *1847:A 6.36656e-05
5 *1848:B1 *452:62 9.77943e-05
6 *1848:B1 *453:73 0.000127181
7 *1848:B1 *470:24 0.000251595
8 *1800:A1 *1848:B1 5.56629e-05
9 *1800:A2 *1848:B1 1.86911e-05
10 *1848:A1 *1848:B1 9.14049e-06
11 *1918:A1 *1848:B1 1.23455e-05
12 *276:19 *1848:B1 5.37442e-05
13 *276:30 *1848:B1 6.89977e-05
*RES
1 *1846:X *1848:B1 13.935 
*END

*D_NET *323 0.000664466
*CONN
*I *1848:A2 I *D sky130_fd_sc_hd__o21a_2
*I *1918:B1 I *D sky130_fd_sc_hd__a21o_2
*I *1847:Y O *D sky130_fd_sc_hd__nand2_2
*CAP
1 *1848:A2 0
2 *1918:B1 0.00017484
3 *1847:Y 5.73173e-05
4 *323:6 0.000232157
5 *323:6 *1847:B 0.00012657
6 *1918:A1 *1918:B1 0
7 *319:10 *1918:B1 7.35813e-05
*RES
1 *1847:Y *323:6 2.74 
2 *323:6 *1918:B1 8.63 
3 *323:6 *1848:A2 1.6 
*END

*D_NET *324 0.000577673
*CONN
*I *1849:B1 I *D sky130_fd_sc_hd__o21ai_2
*I *1850:C I *D sky130_fd_sc_hd__or3_2
*I *1848:X O *D sky130_fd_sc_hd__o21a_2
*CAP
1 *1849:B1 0
2 *1850:C 6.58103e-05
3 *1848:X 6.43014e-05
4 *324:6 0.000130112
5 *1850:C *1896:B 2.49909e-05
6 *1850:C *383:12 0.000137578
7 *1850:C *470:16 0.000139238
8 *324:6 *1847:B 1.56428e-05
*RES
1 *1848:X *324:6 2.395 
2 *324:6 *1850:C 7.685 
3 *324:6 *1849:B1 1.6 
*END

*D_NET *325 0.00110981
*CONN
*I *1896:A I *D sky130_fd_sc_hd__xnor2_2
*I *1918:A2 I *D sky130_fd_sc_hd__a21o_2
*I *1851:A I *D sky130_fd_sc_hd__and2_2
*I *1849:Y O *D sky130_fd_sc_hd__o21ai_2
*CAP
1 *1896:A 1.89314e-05
2 *1918:A2 7.2965e-05
3 *1851:A 0.000110004
4 *1849:Y 0
5 *325:21 0.000149358
6 *325:6 0.000167466
7 *1851:A *1851:B 5.30673e-05
8 *1851:A *1896:B 0.000140309
9 *1851:A *383:12 2.03321e-05
10 *325:21 *1896:B 8.08439e-05
11 *325:21 *383:12 6.31804e-05
12 *1849:A1 *1851:A 9.16237e-05
13 *1849:A2 *1851:A 0
14 *1850:B *1851:A 9.80943e-06
15 *275:25 *1851:A 1.16578e-05
16 *319:10 *1896:A 2.75229e-05
17 *319:10 *1918:A2 9.2741e-05
*RES
1 *1849:Y *325:6 3.6 
2 *325:6 *1851:A 7.14 
3 *325:6 *325:21 3.89 
4 *325:21 *1918:A2 3.085 
5 *325:21 *1896:A 2.05 
*END

*D_NET *326 0.000360798
*CONN
*I *1851:B I *D sky130_fd_sc_hd__and2_2
*I *1850:X O *D sky130_fd_sc_hd__or3_2
*CAP
1 *1851:B 9.1418e-05
2 *1850:X 9.1418e-05
3 *1850:B *1851:B 0.000124895
4 *1851:A *1851:B 5.30673e-05
5 *275:25 *1851:B 0
*RES
1 *1850:X *1851:B 5.3 
*END

*D_NET *327 0.00123595
*CONN
*I *1898:B1 I *D sky130_fd_sc_hd__o211ai_2
*I *1852:B I *D sky130_fd_sc_hd__xor2_2
*I *1897:B1 I *D sky130_fd_sc_hd__o21ai_2
*I *1851:X O *D sky130_fd_sc_hd__and2_2
*CAP
1 *1898:B1 0
2 *1852:B 0.000176406
3 *1897:B1 7.06355e-05
4 *1851:X 0.0001651
5 *327:14 0.000320122
6 *327:8 0.00023818
7 *327:14 *1898:C1 1.34361e-05
8 *327:14 *1919:A 0.00011852
9 *1897:A1 *1852:B 4.69645e-05
10 *1897:A2 *1852:B 8.65905e-05
11 *1897:A2 *327:14 0
12 *320:10 *327:14 0
*RES
1 *1851:X *327:8 4.135 
2 *327:8 *327:14 5.635 
3 *327:14 *1897:B1 2.395 
4 *327:14 *1852:B 2.8275 
5 *327:8 *1898:B1 1.6 
*END

*D_NET *328 0.000105481
*CONN
*I *1853:B I *D sky130_fd_sc_hd__xnor2_2
*I *1852:X O *D sky130_fd_sc_hd__xor2_2
*CAP
1 *1853:B 5.27404e-05
2 *1852:X 5.27404e-05
*RES
1 *1852:X *1853:B 3.995 
*END

*D_NET *329 0.00055781
*CONN
*I *1854:B I *D sky130_fd_sc_hd__nor2_2
*I *1855:B I *D sky130_fd_sc_hd__xnor2_2
*I *1853:Y O *D sky130_fd_sc_hd__xnor2_2
*CAP
1 *1854:B 0.000136924
2 *1855:B 0
3 *1853:Y 0.000128223
4 *329:8 0.000265148
5 *1854:B *1905:A_N 0
6 *1854:B *330:6 2.75145e-05
7 *329:8 *1865:B 0
8 *329:8 *1905:A_N 0
9 *1854:A *1854:B 0
*RES
1 *1853:Y *329:8 5.745 
2 *329:8 *1855:B 3.6 
3 *329:8 *1854:B 5.94 
*END

*D_NET *330 0.000899248
*CONN
*I *1904:A I *D sky130_fd_sc_hd__or3b_4
*I *1903:A1 I *D sky130_fd_sc_hd__o21ba_2
*I *1854:Y O *D sky130_fd_sc_hd__nor2_2
*CAP
1 *1904:A 8.99051e-05
2 *1903:A1 0.000131146
3 *1854:Y 0.000105616
4 *330:6 0.000326667
5 *1903:A1 *1903:A2 8.8266e-05
6 *1903:A1 *1904:B 0
7 *1903:A1 *1904:C_N 7.71016e-05
8 *1903:A1 *378:8 1.34594e-05
9 *1904:A *379:10 3.95724e-05
10 *1854:B *330:6 2.75145e-05
*RES
1 *1854:Y *330:6 3.085 
2 *330:6 *1903:A1 8.375 
3 *330:6 *1904:A 3.1 
*END

*D_NET *331 0.00157926
*CONN
*I *1865:A I *D sky130_fd_sc_hd__nor2_2
*I *1866:A I *D sky130_fd_sc_hd__xnor2_2
*I *1855:Y O *D sky130_fd_sc_hd__xnor2_2
*CAP
1 *1865:A 7.26028e-05
2 *1866:A 0.000102007
3 *1855:Y 0.000139761
4 *331:8 0.000314371
5 *1865:A *1865:B 0.000310636
6 *1865:A *1905:B 0.000116853
7 *1865:A *1927:A2 0.000202314
8 *1866:A *1865:B 0.000231564
9 *1866:A *1905:B 5.39961e-05
10 *1866:A *1907:A 1.01661e-05
11 *1866:A *381:8 0
12 *331:8 *1905:A_N 2.49909e-05
*RES
1 *1855:Y *331:8 5.085 
2 *331:8 *1866:A 6.51 
3 *331:8 *1865:A 7.275 
*END

*D_NET *332 0.000464691
*CONN
*I *1858:B1 I *D sky130_fd_sc_hd__o21a_2
*I *1856:X O *D sky130_fd_sc_hd__a22o_2
*CAP
1 *1858:B1 0.000107268
2 *1856:X 0.000107268
3 *1858:B1 *1856:A2 2.39856e-05
4 *1858:B1 *1858:A2 9.14714e-05
5 *1858:B1 *448:28 1.8486e-05
6 *233:23 *1858:B1 0.000116211
*RES
1 *1856:X *1858:B1 9.375 
*END

*D_NET *333 0.00110955
*CONN
*I *1908:B1 I *D sky130_fd_sc_hd__a21o_2
*I *1858:A2 I *D sky130_fd_sc_hd__o21a_2
*I *1857:Y O *D sky130_fd_sc_hd__nand2_2
*CAP
1 *1908:B1 0.000108986
2 *1858:A2 0.000170841
3 *1857:Y 0
4 *333:4 0.000279827
5 *1858:A2 *1857:A 4.66108e-05
6 *1858:A2 *1857:B 5.18362e-05
7 *1858:A2 *448:28 0.000133739
8 *1858:A2 *449:23 0.000133329
9 *1858:A2 *449:40 4.58262e-06
10 *1908:B1 *1857:A 1.08758e-05
11 *1908:B1 *1909:B 2.74281e-05
12 *1858:A1 *1858:A2 2.49909e-05
13 *1858:B1 *1858:A2 9.14714e-05
14 *233:23 *1858:A2 2.50325e-05
*RES
1 *1857:Y *333:4 1.6 
2 *333:4 *1858:A2 9.92 
3 *333:4 *1908:B1 3.445 
*END

*D_NET *334 0.0010339
*CONN
*I *1860:C I *D sky130_fd_sc_hd__or3_2
*I *1859:B1 I *D sky130_fd_sc_hd__o21ai_2
*I *1858:X O *D sky130_fd_sc_hd__o21a_2
*CAP
1 *1860:C 0.000167631
2 *1859:B1 0
3 *1858:X 0.00011434
4 *334:12 0.000281971
5 *334:12 *466:52 0.000183048
6 *1858:A1 *334:12 1.34594e-05
7 *1859:A1 *1860:C 2.88357e-05
8 *1859:A2 *1860:C 1.26945e-05
9 *1860:B *1860:C 1.90907e-05
10 *1908:A1 *334:12 7.15997e-05
11 *233:23 *1860:C 0.00014123
*RES
1 *1858:X *334:12 8.03 
2 *334:12 *1859:B1 1.6 
3 *334:12 *1860:C 4.945 
*END

*D_NET *335 0.00106279
*CONN
*I *1872:A I *D sky130_fd_sc_hd__xnor2_2
*I *1861:A I *D sky130_fd_sc_hd__and2_2
*I *1908:A2 I *D sky130_fd_sc_hd__a21o_2
*I *1859:Y O *D sky130_fd_sc_hd__o21ai_2
*CAP
1 *1872:A 0
2 *1861:A 9.50526e-05
3 *1908:A2 0
4 *1859:Y 0.000116989
5 *335:21 0.000212806
6 *335:12 0.000234743
7 *1861:A *1861:B 3.79247e-05
8 *1861:A *1909:B 0.000114649
9 *335:12 *1872:B 7.27704e-06
10 *335:12 *1909:B 2.53714e-05
11 *335:12 *466:52 4.28112e-06
12 *335:21 *1872:B 8.53011e-05
13 *335:21 *1909:B 3.46092e-05
14 *1908:A1 *335:12 9.37846e-05
*RES
1 *1859:Y *335:12 7.775 
2 *335:12 *1908:A2 1.6 
3 *335:12 *335:21 2.19 
4 *335:21 *1861:A 7.745 
5 *335:21 *1872:A 1.6 
*END

*D_NET *336 0.000625218
*CONN
*I *1861:B I *D sky130_fd_sc_hd__and2_2
*I *1860:X O *D sky130_fd_sc_hd__or3_2
*CAP
1 *1861:B 0.000237036
2 *1860:X 0.000237036
3 *1861:B *1909:B 0.000113222
4 *1861:A *1861:B 3.79247e-05
*RES
1 *1860:X *1861:B 11.325 
*END

*D_NET *337 0.00417705
*CONN
*I *1862:B I *D sky130_fd_sc_hd__xnor2_2
*I *1874:A2 I *D sky130_fd_sc_hd__a21o_2
*I *1875:A2 I *D sky130_fd_sc_hd__o21a_4
*I *1873:A2 I *D sky130_fd_sc_hd__a21o_2
*I *1861:X O *D sky130_fd_sc_hd__and2_2
*CAP
1 *1862:B 1.80928e-05
2 *1874:A2 0
3 *1875:A2 0
4 *1873:A2 0.000122797
5 *1861:X 0.00114067
6 *337:34 0.000111901
7 *337:16 0.000191242
8 *337:10 0.00130292
9 *337:10 *1875:B1 4.60814e-05
10 *337:10 *1876:B 0.000145521
11 *337:10 *1877:A 2.06497e-05
12 *337:10 *1909:A 2.99026e-05
13 *337:10 *1909:B 5.09431e-05
14 *337:10 *352:13 1.37141e-05
15 *337:16 *1874:B1 0.000114518
16 *1657:A *337:16 8.44308e-05
17 *1862:A *1862:B 6.63221e-05
18 *1862:A *337:16 3.0816e-05
19 *1862:A *337:34 8.53011e-05
20 *1873:A1 *1873:A2 0.000233604
21 *1874:A1 *1862:B 0.00012398
22 *1874:A1 *337:34 2.21074e-05
23 *134:8 *337:16 1.64067e-05
24 *134:12 *1873:A2 0.00019982
25 *235:25 *337:16 5.31158e-06
*RES
1 *1861:X *337:10 15.535 
2 *337:10 *337:16 6.145 
3 *337:16 *1873:A2 5.17 
4 *337:16 *1875:A2 1.6 
5 *337:10 *337:34 1.845 
6 *337:34 *1874:A2 1.6 
7 *337:34 *1862:B 2.74 
*END

*D_NET *338 0.000188473
*CONN
*I *1864:A I *D sky130_fd_sc_hd__xnor2_2
*I *1862:Y O *D sky130_fd_sc_hd__xnor2_2
*CAP
1 *1864:A 6.18688e-05
2 *1862:Y 6.18688e-05
3 *221:8 *1864:A 6.47357e-05
*RES
1 *1862:Y *1864:A 8.58 
*END

*D_NET *339 0.000975375
*CONN
*I *1864:B I *D sky130_fd_sc_hd__xnor2_2
*I *1863:Y O *D sky130_fd_sc_hd__a21oi_2
*CAP
1 *1864:B 0.000262761
2 *1863:Y 0.000262761
3 *1743:B *1864:B 9.91348e-05
4 *1863:A1 *1864:B 0.000155614
5 *1874:A1 *1864:B 0.000179579
6 *129:23 *1864:B 1.55253e-05
*RES
1 *1863:Y *1864:B 13.11 
*END

*D_NET *340 0.00739138
*CONN
*I *1865:B I *D sky130_fd_sc_hd__nor2_2
*I *1866:B I *D sky130_fd_sc_hd__xnor2_2
*I *1864:Y O *D sky130_fd_sc_hd__xnor2_2
*CAP
1 *1865:B 0.000164845
2 *1866:B 0.00194549
3 *1864:Y 0.00178065
4 *1865:B *1905:A_N 0.000362972
5 *1866:B *1745:A2 0.000273015
6 *1866:B *1818:B 0.000337143
7 *1866:B *2073:A 6.74079e-05
8 *1866:B *2075:A 6.74079e-05
9 *1866:B *2076:A 0.000191159
10 *1866:B *2077:A 0.000205376
11 *1866:B *381:8 0.000591408
12 y[1] *1866:B 0
13 y[2] *1866:B 6.67235e-05
14 y[4] *1866:B 0
15 *1744:B *1866:B 0
16 *1764:A *1866:B 6.73751e-05
17 *1764:B *1866:B 0
18 *1815:A *1866:B 7.45712e-05
19 *1815:B *1866:B 0.000366994
20 *1817:A1 *1866:B 0
21 *1819:A1 *1866:B 0
22 *1865:A *1865:B 0.000310636
23 *1866:A *1865:B 0.000231564
24 *2052:A *1866:B 0.000175583
25 *2053:A *1866:B 0
26 *206:16 *1866:B 0
27 *221:8 *1866:B 0
28 *227:8 *1866:B 0
29 *291:10 *1866:B 0.000111061
30 *294:12 *1866:B 0
31 *329:8 *1865:B 0
*RES
1 *1864:Y *1866:B 46.305 
2 *1866:B *1865:B 13.425 
*END

*D_NET *341 0.000591056
*CONN
*I *1904:B I *D sky130_fd_sc_hd__or3b_4
*I *1903:A2 I *D sky130_fd_sc_hd__o21ba_2
*I *1865:Y O *D sky130_fd_sc_hd__nor2_2
*CAP
1 *1904:B 8.94224e-05
2 *1903:A2 3.13067e-05
3 *1865:Y 0
4 *341:4 0.000120729
5 *1903:A2 *378:8 7.35729e-05
6 *1904:B *1904:C_N 0
7 *1904:B *1905:A_N 0.000187759
8 *1903:A1 *1903:A2 8.8266e-05
9 *1903:A1 *1904:B 0
*RES
1 *1865:Y *341:4 1.6 
2 *341:4 *1903:A2 2.74 
3 *341:4 *1904:B 7.745 
*END

*D_NET *342 0.000684074
*CONN
*I *1868:B I *D sky130_fd_sc_hd__xnor2_2
*I *1867:A_N I *D sky130_fd_sc_hd__and2b_2
*I *1866:Y O *D sky130_fd_sc_hd__xnor2_2
*CAP
1 *1868:B 9.74635e-05
2 *1867:A_N 5.4625e-05
3 *1866:Y 8.83593e-05
4 *342:10 0.000240448
5 *1868:A *1868:B 0.000203178
*RES
1 *1866:Y *342:10 6.98 
2 *342:10 *1867:A_N 2.395 
3 *342:10 *1868:B 3.775 
*END

*D_NET *343 0.0011096
*CONN
*I *1906:B1 I *D sky130_fd_sc_hd__a21o_4
*I *1867:X O *D sky130_fd_sc_hd__and2b_2
*CAP
1 *1906:B1 0.000305171
2 *1867:X 0.000305171
3 *1906:B1 *1906:A2 0.000187759
4 *1906:B1 *344:14 0.000116853
5 *1906:B1 *381:8 7.24866e-05
6 *1868:A *1906:B1 0.000122155
7 *295:12 *1906:B1 0
*RES
1 *1867:X *1906:B1 13.245 
*END

*D_NET *344 0.00117525
*CONN
*I *1870:A I *D sky130_fd_sc_hd__xor2_2
*I *1906:A2 I *D sky130_fd_sc_hd__a21o_4
*I *1868:Y O *D sky130_fd_sc_hd__xnor2_2
*CAP
1 *1870:A 0
2 *1906:A2 9.9787e-05
3 *1868:Y 0.000290265
4 *344:14 0.000390052
5 *344:14 *381:8 9.05377e-05
6 *1819:A1 *1906:A2 0
7 *1906:B1 *1906:A2 0.000187759
8 *1906:B1 *344:14 0.000116853
9 *295:12 *1906:A2 0
10 *295:12 *344:14 0
*RES
1 *1868:Y *344:14 10.46 
2 *344:14 *1906:A2 7.745 
3 *344:14 *1870:A 1.6 
*END

*D_NET *345 0.00177162
*CONN
*I *2091:A I *D sky130_fd_sc_hd__buf_6
*I *1906:A1 I *D sky130_fd_sc_hd__a21o_4
*I *1869:X O *D sky130_fd_sc_hd__a21o_4
*CAP
1 *2091:A 0.000166871
2 *1906:A1 0.0002108
3 *1869:X 0.000320882
4 *345:8 0.000698553
5 *1811:B *345:8 0.000141606
6 *1813:B *345:8 0
7 *1819:A1 *1906:A1 4.66742e-05
8 *1819:A1 *2091:A 0
9 *1819:A2 *345:8 0
10 *1819:B1 *1906:A1 0.000163204
11 *1819:B1 *2091:A 0
12 *1819:B1 *345:8 0
13 *1845:A2 *2091:A 0
14 *241:8 *345:8 0
15 *295:12 *1906:A1 2.30292e-05
16 *295:12 *2091:A 0
*RES
1 *1869:X *345:8 9.315 
2 *345:8 *1906:A1 7.515 
3 *345:8 *2091:A 6.195 
*END

*D_NET *346 0.000766325
*CONN
*I *1872:B I *D sky130_fd_sc_hd__xnor2_2
*I *1871:X O *D sky130_fd_sc_hd__and3_2
*CAP
1 *1872:B 0.000255053
2 *1871:X 0.000255053
3 *1872:B *1909:B 3.33839e-05
4 *1908:A1 *1872:B 0.000130257
5 *335:12 *1872:B 7.27704e-06
6 *335:21 *1872:B 8.53011e-05
*RES
1 *1871:X *1872:B 11.415 
*END

*D_NET *347 0.000963453
*CONN
*I *1877:A I *D sky130_fd_sc_hd__xor2_4
*I *1876:A I *D sky130_fd_sc_hd__nand2_2
*I *1872:Y O *D sky130_fd_sc_hd__xnor2_2
*CAP
1 *1877:A 0.000123434
2 *1876:A 0
3 *1872:Y 0.000176068
4 *347:12 0.000299502
5 *1877:A *1876:B 6.55883e-05
6 *347:12 *2072:A 9.91348e-05
7 *347:12 *455:49 0.000179077
8 *337:10 *1877:A 2.06497e-05
*RES
1 *1872:Y *347:12 9.23 
2 *347:12 *1876:A 1.6 
3 *347:12 *1877:A 3.805 
*END

*D_NET *348 0.000576324
*CONN
*I *1874:B1 I *D sky130_fd_sc_hd__a21o_2
*I *1873:X O *D sky130_fd_sc_hd__a21o_2
*CAP
1 *1874:B1 0.000145428
2 *1873:X 0.000145428
3 *1657:A *1874:B1 8.34904e-06
4 *1862:A *1874:B1 9.24881e-05
5 *134:12 *1874:B1 7.01132e-05
6 *337:16 *1874:B1 0.000114518
*RES
1 *1873:X *1874:B1 9.975 
*END

*D_NET *349 0.000439172
*CONN
*I *1875:B1 I *D sky130_fd_sc_hd__o21a_4
*I *1874:X O *D sky130_fd_sc_hd__a21o_2
*CAP
1 *1875:B1 0.000107724
2 *1874:X 0.000107724
3 *1656:A *1875:B1 6.29998e-05
4 *1657:A *1875:B1 0.000105518
5 *134:8 *1875:B1 9.12494e-06
6 *337:10 *1875:B1 4.60814e-05
*RES
1 *1874:X *1875:B1 9.375 
*END

*D_NET *350 0.00110647
*CONN
*I *1876:B I *D sky130_fd_sc_hd__nand2_2
*I *1877:B I *D sky130_fd_sc_hd__xor2_4
*I *1875:X O *D sky130_fd_sc_hd__o21a_4
*CAP
1 *1876:B 0.000147207
2 *1877:B 0.000447679
3 *1875:X 0.000300471
4 *1877:A *1876:B 6.55883e-05
5 *337:10 *1876:B 0.000145521
*RES
1 *1875:X *1877:B 11.865 
2 *1877:B *1876:B 6.89 
*END

*D_NET *351 0.000128591
*CONN
*I *1909:A I *D sky130_fd_sc_hd__nand2_2
*I *1876:Y O *D sky130_fd_sc_hd__nand2_2
*CAP
1 *1909:A 4.93443e-05
2 *1876:Y 4.93443e-05
3 *337:10 *1909:A 2.99026e-05
*RES
1 *1876:Y *1909:A 3.995 
*END

*D_NET *352 0.00784479
*CONN
*I *2083:A I *D sky130_fd_sc_hd__buf_2
*I *1902:A I *D sky130_fd_sc_hd__xnor2_2
*I *1877:X O *D sky130_fd_sc_hd__xor2_4
*CAP
1 *2083:A 0.000153647
2 *1902:A 3.37454e-05
3 *1877:X 0.00211742
4 *352:13 0.00230481
5 *2083:A *1901:B 0
6 *2083:A *1902:B 5.72091e-05
7 *2083:A *1924:A1 6.69341e-05
8 *2083:A *1924:B1 0
9 *2083:A *2084:A 4.82919e-05
10 *352:13 *1899:B 0
11 *352:13 *1901:B 0
12 *352:13 *1902:B 2.97004e-06
13 *352:13 *374:10 0
14 *1641:A *352:13 0.00022282
15 *1644:A1 *352:13 0.000193331
16 *1655:B *352:13 4.83032e-05
17 *1656:A *352:13 8.34904e-06
18 *1657:A *352:13 0
19 *1657:B *352:13 0
20 *1668:A *352:13 0
21 *1721:A *352:13 1.26626e-05
22 *1721:B *352:13 0.000243758
23 *1722:B *352:13 9.14049e-05
24 *1723:A *352:13 7.55391e-05
25 *1723:B *352:13 0.000225182
26 *1807:B1 *352:13 0.000289698
27 *1809:A *352:13 0.000210846
28 *1809:B *352:13 0.000203002
29 *1811:A *352:13 4.49498e-05
30 *1853:A *352:13 0
31 *108:27 *352:13 0.000111096
32 *116:8 *352:13 9.54469e-05
33 *118:19 *352:13 0
34 *121:10 *352:13 0
35 *133:14 *352:13 5.13029e-05
36 *144:10 *352:13 0
37 *145:12 *352:13 0
38 *147:14 *352:13 0.0003175
39 *148:10 *352:13 0
40 *148:23 *352:13 0
41 *199:8 *352:13 4.21256e-05
42 *273:12 *352:13 1.73877e-05
43 *274:8 *352:13 0
44 *281:19 *352:13 0
45 *281:30 *352:13 0
46 *284:10 *352:13 0.000468679
47 *285:10 *352:13 7.26551e-05
48 *337:10 *352:13 1.37141e-05
*RES
1 *1877:X *352:13 47.6825 
2 *352:13 *1902:A 4.05 
3 *352:13 *2083:A 6.975 
*END

*D_NET *353 0.000334255
*CONN
*I *1894:A I *D sky130_fd_sc_hd__xor2_2
*I *1910:A1 I *D sky130_fd_sc_hd__o21a_2
*I *1878:Y O *D sky130_fd_sc_hd__a21oi_2
*CAP
1 *1894:A 3.63983e-05
2 *1910:A1 0
3 *1878:Y 8.74312e-05
4 *353:10 0.000123829
5 *1894:A *1894:B 8.65961e-05
6 *353:10 *1892:A 0
*RES
1 *1878:Y *353:10 6.98 
2 *353:10 *1910:A1 1.6 
3 *353:10 *1894:A 2.395 
*END

*D_NET *354 0.000542218
*CONN
*I *1880:B I *D sky130_fd_sc_hd__xnor2_2
*I *1879:X O *D sky130_fd_sc_hd__and3_2
*CAP
1 *1880:B 0.000100505
2 *1879:X 0.000100505
3 *1880:B *1824:B 0
4 *1880:B *1912:B 4.82863e-05
5 *1880:B *1915:B 4.82863e-05
6 *1880:B *514:10 0.000114492
7 *1911:A1 *1880:B 7.23533e-05
8 *1911:A2 *1880:B 4.82863e-05
9 *259:34 *1880:B 9.50342e-06
*RES
1 *1879:X *1880:B 9.48 
*END

*D_NET *355 0.00127626
*CONN
*I *1882:A I *D sky130_fd_sc_hd__nand2_2
*I *1883:A I *D sky130_fd_sc_hd__xnor2_2
*I *1880:Y O *D sky130_fd_sc_hd__xnor2_2
*CAP
1 *1882:A 0.000114182
2 *1883:A 0.000101058
3 *1880:Y 0.000179957
4 *355:8 0.000395197
5 *1882:A *1882:B 3.2674e-05
6 *1882:A *1884:A 0
7 *1882:A *1912:A 0.000140912
8 *1882:A *1915:B 2.97004e-06
9 *1882:A *366:12 0
10 *1883:A *1882:B 4.40812e-05
11 *1883:A *1915:B 8.307e-05
12 *355:8 *1912:B 0.000122155
13 *355:8 *366:12 5.41685e-05
14 *355:8 *386:6 5.83121e-06
*RES
1 *1880:Y *355:8 6.81 
2 *355:8 *1883:A 5.79 
3 *355:8 *1882:A 6.255 
*END

*D_NET *356 0.00170139
*CONN
*I *1882:B I *D sky130_fd_sc_hd__nand2_2
*I *1883:B I *D sky130_fd_sc_hd__xnor2_2
*I *1881:Y O *D sky130_fd_sc_hd__a21oi_2
*CAP
1 *1882:B 0.000285235
2 *1883:B 0
3 *1881:Y 0.00027515
4 *356:10 0.000560385
5 *1882:B *1912:A 7.63125e-05
6 *1882:B *514:10 3.64998e-06
7 *1829:A *356:10 9.24127e-05
8 *1881:B1 *356:10 0.000164686
9 *1882:A *1882:B 3.2674e-05
10 *1883:A *1882:B 4.40812e-05
11 *263:8 *356:10 4.82919e-05
12 *304:10 *356:10 0.000118513
*RES
1 *1881:Y *356:10 9.765 
2 *356:10 *1883:B 3.6 
3 *356:10 *1882:B 8.835 
*END

*D_NET *357 0.000303937
*CONN
*I *1912:A I *D sky130_fd_sc_hd__nand2_2
*I *1882:Y O *D sky130_fd_sc_hd__nand2_2
*CAP
1 *1912:A 4.33562e-05
2 *1882:Y 4.33562e-05
3 *1882:A *1912:A 0.000140912
4 *1882:B *1912:A 7.63125e-05
*RES
1 *1882:Y *1912:A 8.835 
*END

*D_NET *358 0.000204943
*CONN
*I *1884:A I *D sky130_fd_sc_hd__inv_2
*I *1883:Y O *D sky130_fd_sc_hd__xnor2_2
*CAP
1 *1884:A 5.26999e-05
2 *1883:Y 5.26999e-05
3 *1884:A *1915:B 3.47837e-05
4 *1884:A *366:12 6.47594e-05
5 *1882:A *1884:A 0
*RES
1 *1883:Y *1884:A 8.58 
*END

*D_NET *359 0.00116267
*CONN
*I *1893:A I *D sky130_fd_sc_hd__xnor2_2
*I *1892:A I *D sky130_fd_sc_hd__nand2_2
*I *1884:Y O *D sky130_fd_sc_hd__inv_2
*CAP
1 *1893:A 5.66458e-05
2 *1892:A 0.000150662
3 *1884:Y 0.000284783
4 *359:10 0.00049209
5 *1892:A *1892:B 0
6 *1892:A *1916:A_N 0
7 *1892:A *366:12 0
8 *1892:A *368:12 0
9 *359:10 *1915:B 0.000162311
10 *359:10 *1916:A_N 0
11 *359:10 *366:12 0
12 *359:10 *386:6 1.61831e-05
13 *353:10 *1892:A 0
*RES
1 *1884:Y *359:10 7.5 
2 *359:10 *1892:A 6 
3 *359:10 *1893:A 4.395 
*END

*D_NET *360 0.00190256
*CONN
*I *1887:B I *D sky130_fd_sc_hd__xnor2_2
*I *1886:B I *D sky130_fd_sc_hd__and2b_2
*I *1885:X O *D sky130_fd_sc_hd__and3_2
*CAP
1 *1887:B 0.00011367
2 *1886:B 0
3 *1885:X 0.000323138
4 *360:10 0.000436808
5 *1887:B *364:14 6.00003e-05
6 *360:10 *1769:B 2.36616e-05
7 *360:10 *364:14 0.000213507
8 *1836:A *360:10 1.61831e-05
9 *1836:C *360:10 4.66826e-05
10 *1887:A *1887:B 0.000127245
11 *1887:A *360:10 6.85516e-05
12 *1913:A *1887:B 1.83847e-05
13 *309:18 *360:10 0
14 *311:12 *360:10 5.83121e-06
15 *312:8 *360:10 0.000448895
*RES
1 *1885:X *360:10 11.4 
2 *360:10 *1886:B 3.6 
3 *360:10 *1887:B 6.24 
*END

*D_NET *361 0.000631052
*CONN
*I *1913:B I *D sky130_fd_sc_hd__or3_4
*I *1886:X O *D sky130_fd_sc_hd__and2b_2
*CAP
1 *1913:B 0.000287205
2 *1886:X 0.000287205
3 *1838:A *1913:B 3.45679e-05
4 *1838:B *1913:B 2.20732e-05
5 *1887:A *1913:B 0
*RES
1 *1886:X *1913:B 10.845 
*END

*D_NET *362 0.00048468
*CONN
*I *1891:A I *D sky130_fd_sc_hd__xor2_2
*I *1890:A I *D sky130_fd_sc_hd__and2_4
*I *1887:Y O *D sky130_fd_sc_hd__xnor2_2
*CAP
1 *1891:A 4.09495e-05
2 *1890:A 0
3 *1887:Y 6.79149e-05
4 *362:10 0.000108864
5 *1891:A *1891:B 0.0001249
6 *1891:A *1913:C 4.66108e-05
7 *362:10 *1913:C 9.54399e-05
8 *362:10 *364:14 0
*RES
1 *1887:Y *362:10 6.98 
2 *362:10 *1890:A 1.6 
3 *362:10 *1891:A 2.74 
*END

*D_NET *363 0.000556947
*CONN
*I *1889:B1 I *D sky130_fd_sc_hd__o21a_4
*I *1888:X O *D sky130_fd_sc_hd__a211o_4
*CAP
1 *1889:B1 0.000245703
2 *1888:X 0.000245703
3 *1838:A *1889:B1 6.55406e-05
4 *1888:C1 *1889:B1 0
*RES
1 *1888:X *1889:B1 11.1 
*END

*D_NET *364 0.00214054
*CONN
*I *1891:B I *D sky130_fd_sc_hd__xor2_2
*I *1890:B I *D sky130_fd_sc_hd__and2_4
*I *1889:X O *D sky130_fd_sc_hd__o21a_4
*CAP
1 *1891:B 0.000116815
2 *1890:B 0
3 *1889:X 0.000540947
4 *364:14 0.000657763
5 *1891:B *1913:C 1.46744e-05
6 *364:14 *1913:C 0.000203178
7 *1887:A *364:14 1.94723e-05
8 *1887:B *364:14 6.00003e-05
9 *1891:A *1891:B 0.0001249
10 *1913:A *364:14 0
11 *309:18 *364:14 0.000189284
12 *360:10 *364:14 0.000213507
13 *362:10 *364:14 0
*RES
1 *1889:X *364:14 17.27 
2 *364:14 *1890:B 1.6 
3 *364:14 *1891:B 2.4975 
*END

*D_NET *365 0.000793003
*CONN
*I *1913:C I *D sky130_fd_sc_hd__or3_4
*I *1890:X O *D sky130_fd_sc_hd__and2_4
*CAP
1 *1913:C 0.00021655
2 *1890:X 0.00021655
3 *1887:A *1913:C 0
4 *1891:A *1913:C 4.66108e-05
5 *1891:B *1913:C 1.46744e-05
6 *362:10 *1913:C 9.54399e-05
7 *364:14 *1913:C 0.000203178
*RES
1 *1890:X *1913:C 11.355 
*END

*D_NET *366 0.00400312
*CONN
*I *1893:B I *D sky130_fd_sc_hd__xnor2_2
*I *1892:B I *D sky130_fd_sc_hd__nand2_2
*I *1891:X O *D sky130_fd_sc_hd__xor2_2
*CAP
1 *1893:B 3.37454e-05
2 *1892:B 0.000211366
3 *1891:X 0.00105134
4 *366:12 0.00129646
5 *366:12 *1824:B 4.29016e-05
6 *366:12 *1912:B 0.000890089
7 *366:12 *1914:B 0
8 *366:12 *386:6 0.000314745
9 *1882:A *366:12 0
10 *1884:A *366:12 6.47594e-05
11 *1892:A *1892:B 0
12 *1892:A *366:12 0
13 *1911:B1 *366:12 4.35432e-05
14 *355:8 *366:12 5.41685e-05
15 *359:10 *366:12 0
*RES
1 *1891:X *366:12 22.59 
2 *366:12 *1892:B 6.885 
3 *366:12 *1893:B 4.05 
*END

*D_NET *367 0.000201282
*CONN
*I *1910:B1 I *D sky130_fd_sc_hd__o21a_2
*I *1892:Y O *D sky130_fd_sc_hd__nand2_2
*CAP
1 *1910:B1 8.19951e-05
2 *1892:Y 8.19951e-05
3 *1910:B1 *384:10 3.72916e-05
*RES
1 *1892:Y *1910:B1 4.685 
*END

*D_NET *368 0.000704669
*CONN
*I *1894:B I *D sky130_fd_sc_hd__xor2_2
*I *1910:A2 I *D sky130_fd_sc_hd__o21a_2
*I *1893:Y O *D sky130_fd_sc_hd__xnor2_2
*CAP
1 *1894:B 9.04974e-05
2 *1910:A2 0
3 *1893:Y 0.000146351
4 *368:12 0.000236849
5 *1894:B *384:10 2.75229e-05
6 *368:12 *384:10 0.000116853
7 *1892:A *368:12 0
8 *1894:A *1894:B 8.65961e-05
*RES
1 *1893:Y *368:12 8.285 
2 *368:12 *1910:A2 1.6 
3 *368:12 *1894:B 1.7925 
*END

*D_NET *369 0.00243668
*CONN
*I *1901:A I *D sky130_fd_sc_hd__xor2_2
*I *1900:A I *D sky130_fd_sc_hd__and2_2
*I *1894:X O *D sky130_fd_sc_hd__xor2_2
*CAP
1 *1901:A 0
2 *1900:A 8.33204e-05
3 *1894:X 0.000940097
4 *369:12 0.00102342
5 *1900:A *1901:B 8.68724e-05
6 *1900:A *374:10 5.53249e-06
7 *369:12 *1920:B 5.43769e-05
8 *369:12 *1932:A_N 6.12954e-05
9 *369:12 *1932:B 2.61299e-05
10 *369:12 *1933:B 0.000155636
*RES
1 *1894:X *369:12 14.515 
2 *369:12 *1900:A 7.49 
3 *369:12 *1901:A 1.6 
*END

*D_NET *370 0.00103536
*CONN
*I *1896:B I *D sky130_fd_sc_hd__xnor2_2
*I *1895:X O *D sky130_fd_sc_hd__and3_2
*CAP
1 *1896:B 0.000347476
2 *1895:X 0.000347476
3 *1896:B *1898:C1 0
4 *1896:B *470:16 9.60582e-07
5 *1849:A2 *1896:B 6.36578e-05
6 *1850:C *1896:B 2.49909e-05
7 *1851:A *1896:B 0.000140309
8 *275:25 *1896:B 2.96426e-05
9 *325:21 *1896:B 8.08439e-05
*RES
1 *1895:X *1896:B 13.14 
*END

*D_NET *371 0.00100469
*CONN
*I *1899:A I *D sky130_fd_sc_hd__xnor2_2
*I *1898:C1 I *D sky130_fd_sc_hd__o211ai_2
*I *1896:Y O *D sky130_fd_sc_hd__xnor2_2
*CAP
1 *1899:A 7.17713e-05
2 *1898:C1 0.000169371
3 *1896:Y 2.32329e-05
4 *371:6 0.000264375
5 *1898:C1 *1919:A 0.000342247
6 *1849:A2 *1898:C1 0
7 *1896:B *1898:C1 0
8 *319:10 *1899:A 9.2741e-05
9 *319:10 *371:6 2.75145e-05
10 *327:14 *1898:C1 1.34361e-05
*RES
1 *1896:Y *371:6 2.05 
2 *371:6 *1898:C1 9.785 
3 *371:6 *1899:A 3.085 
*END

*D_NET *372 0.000221381
*CONN
*I *1899:B I *D sky130_fd_sc_hd__xnor2_2
*I *1897:Y O *D sky130_fd_sc_hd__o21ai_2
*CAP
1 *1899:B 7.02686e-05
2 *1897:Y 7.02686e-05
3 *1899:B *1919:A 8.08439e-05
4 *352:13 *1899:B 0
*RES
1 *1897:Y *1899:B 8.835 
*END

*D_NET *373 0.00184866
*CONN
*I *1919:A I *D sky130_fd_sc_hd__nand2_2
*I *1898:Y O *D sky130_fd_sc_hd__o211ai_2
*CAP
1 *1919:A 0.000653525
2 *1898:Y 0.000653525
3 *1919:A *374:10 0
4 *1897:A2 *1919:A 0
5 *1898:C1 *1919:A 0.000342247
6 *1899:B *1919:A 8.08439e-05
7 *327:14 *1919:A 0.00011852
*RES
1 *1898:Y *1919:A 19.23 
*END

*D_NET *374 0.00122528
*CONN
*I *1901:B I *D sky130_fd_sc_hd__xor2_2
*I *1900:B I *D sky130_fd_sc_hd__and2_2
*I *1899:Y O *D sky130_fd_sc_hd__xnor2_2
*CAP
1 *1901:B 5.18116e-05
2 *1900:B 0
3 *1899:Y 0.000383201
4 *374:10 0.000435013
5 *1901:B *1924:B1 0.000120186
6 *1900:A *1901:B 8.68724e-05
7 *1900:A *374:10 5.53249e-06
8 *1919:A *374:10 0
9 *2083:A *1901:B 0
10 *319:10 *374:10 0.000142661
11 *352:13 *1901:B 0
12 *352:13 *374:10 0
*RES
1 *1899:Y *374:10 9.45 
2 *374:10 *1900:B 3.6 
3 *374:10 *1901:B 3.89 
*END

*D_NET *375 0.000566043
*CONN
*I *1924:B1 I *D sky130_fd_sc_hd__a21oi_2
*I *1900:X O *D sky130_fd_sc_hd__and2_2
*CAP
1 *1924:B1 0.000222928
2 *1900:X 0.000222928
3 *1924:B1 *1924:A1 0
4 *1924:B1 *1933:B 0
5 *1901:B *1924:B1 0.000120186
6 *2083:A *1924:B1 0
*RES
1 *1900:X *1924:B1 11.07 
*END

*D_NET *376 0.000630309
*CONN
*I *2084:A I *D sky130_fd_sc_hd__buf_2
*I *1902:B I *D sky130_fd_sc_hd__xnor2_2
*I *1901:X O *D sky130_fd_sc_hd__xor2_2
*CAP
1 *2084:A 0.000133958
2 *1902:B 0.000113631
3 *1901:X 0
4 *376:4 0.000247589
5 *2084:A *1924:A1 2.66586e-05
6 *2083:A *1902:B 5.72091e-05
7 *2083:A *2084:A 4.82919e-05
8 *352:13 *1902:B 2.97004e-06
*RES
1 *1901:X *376:4 1.6 
2 *376:4 *1902:B 7.685 
3 *376:4 *2084:A 3.79 
*END

*D_NET *377 0.000749977
*CONN
*I *1904:C_N I *D sky130_fd_sc_hd__or3b_4
*I *1903:B1_N I *D sky130_fd_sc_hd__o21ba_2
*I *1902:Y O *D sky130_fd_sc_hd__xnor2_2
*CAP
1 *1904:C_N 0.000121661
2 *1903:B1_N 0
3 *1902:Y 0.000212952
4 *377:6 0.000334613
5 *1904:C_N *378:8 3.64998e-06
6 *1903:A1 *1904:C_N 7.71016e-05
7 *1904:B *1904:C_N 0
*RES
1 *1902:Y *377:6 4.81 
2 *377:6 *1903:B1_N 1.6 
3 *377:6 *1904:C_N 7.94 
*END

*D_NET *378 0.00177833
*CONN
*I *1927:B1 I *D sky130_fd_sc_hd__a21o_4
*I *1905:A_N I *D sky130_fd_sc_hd__nand2b_2
*I *1903:X O *D sky130_fd_sc_hd__o21ba_2
*CAP
1 *1927:B1 0.000134324
2 *1905:A_N 0.000178409
3 *1903:X 0.000213128
4 *378:8 0.000525862
5 *1905:A_N *1927:A2 1.82476e-05
6 *1927:B1 *1927:A2 4.19513e-05
7 *1854:B *1905:A_N 0
8 *1865:B *1905:A_N 0.000362972
9 *1903:A1 *378:8 1.34594e-05
10 *1903:A2 *378:8 7.35729e-05
11 *1904:B *1905:A_N 0.000187759
12 *1904:C_N *378:8 3.64998e-06
13 *329:8 *1905:A_N 0
14 *331:8 *1905:A_N 2.49909e-05
*RES
1 *1903:X *378:8 6.12 
2 *378:8 *1905:A_N 8.745 
3 *378:8 *1927:B1 5.985 
*END

*D_NET *379 0.00150591
*CONN
*I *1927:A2 I *D sky130_fd_sc_hd__a21o_4
*I *1905:B I *D sky130_fd_sc_hd__nand2b_2
*I *1904:X O *D sky130_fd_sc_hd__or3b_4
*CAP
1 *1927:A2 0.00015571
2 *1905:B 8.13626e-05
3 *1904:X 0.000174503
4 *379:10 0.000411575
5 *1905:B *1907:A 9.05377e-05
6 *1927:A2 *1907:A 0.000119285
7 *1927:A2 *1927:A1 0
8 *1927:A2 *1928:B 0
9 *1865:A *1905:B 0.000116853
10 *1865:A *1927:A2 0.000202314
11 *1866:A *1905:B 5.39961e-05
12 *1904:A *379:10 3.95724e-05
13 *1905:A_N *1927:A2 1.82476e-05
14 *1927:B1 *1927:A2 4.19513e-05
*RES
1 *1904:X *379:10 6.135 
2 *379:10 *1905:B 5.94 
3 *379:10 *1927:A2 8.04 
*END

*D_NET *380 0.000792913
*CONN
*I *1907:A I *D sky130_fd_sc_hd__xnor2_2
*I *1905:Y O *D sky130_fd_sc_hd__nand2b_2
*CAP
1 *1907:A 0.000177056
2 *1905:Y 0.000177056
3 *1907:A *1927:A1 0.000112971
4 *1907:A *381:8 0.000105841
5 *1866:A *1907:A 1.01661e-05
6 *1905:B *1907:A 9.05377e-05
7 *1927:A2 *1907:A 0.000119285
*RES
1 *1905:Y *1907:A 12.435 
*END

*D_NET *381 0.00260834
*CONN
*I *1927:A1 I *D sky130_fd_sc_hd__a21o_4
*I *2088:A I *D sky130_fd_sc_hd__buf_6
*I *1906:X O *D sky130_fd_sc_hd__a21o_4
*CAP
1 *1927:A1 0.000316322
2 *2088:A 6.05382e-05
3 *1906:X 0.000368675
4 *381:8 0.000745536
5 *1927:A1 *1907:B 6.9451e-05
6 *1927:A1 *2078:A 0
7 *381:8 *2077:A 7.45712e-05
8 *1819:A1 *381:8 0
9 *1866:A *381:8 0
10 *1866:B *381:8 0.000591408
11 *1906:B1 *381:8 7.24866e-05
12 *1907:A *1927:A1 0.000112971
13 *1907:A *381:8 0.000105841
14 *1927:A2 *1927:A1 0
15 *344:14 *381:8 9.05377e-05
*RES
1 *1906:X *381:8 14.16 
2 *381:8 *2088:A 4.395 
3 *381:8 *1927:A1 9.615 
*END

*D_NET *382 0.00135251
*CONN
*I *1909:B I *D sky130_fd_sc_hd__nand2_2
*I *1908:X O *D sky130_fd_sc_hd__a21o_2
*CAP
1 *1909:B 0.000476453
2 *1908:X 0.000476453
3 *1861:A *1909:B 0.000114649
4 *1861:B *1909:B 0.000113222
5 *1872:B *1909:B 3.33839e-05
6 *1908:B1 *1909:B 2.74281e-05
7 *335:12 *1909:B 2.53714e-05
8 *335:21 *1909:B 3.46092e-05
9 *337:10 *1909:B 5.09431e-05
*RES
1 *1908:X *1909:B 14.67 
*END

*D_NET *383 0.00858336
*CONN
*I *1923:A I *D sky130_fd_sc_hd__xor2_2
*I *1922:A I *D sky130_fd_sc_hd__and2_4
*I *1909:Y O *D sky130_fd_sc_hd__nand2_2
*CAP
1 *1923:A 0.000194663
2 *1922:A 2.08101e-05
3 *1909:Y 0.0016962
4 *383:16 0.000260789
5 *383:12 0.00174151
6 *1923:A *1923:B 0.000164287
7 *1923:A *1932:B 0.000141606
8 *1923:A *2089:A 2.75145e-05
9 *1923:A *395:12 5.4256e-05
10 *1923:A *470:10 0
11 *383:12 *1678:A 0
12 *383:12 *1679:A1 0.000208025
13 *383:12 *1720:A 0
14 *383:12 *1720:B 0.000194531
15 *383:12 *1801:A1 0.00013994
16 *383:12 *1934:A1 7.45968e-05
17 *383:12 *2072:A 0
18 *383:12 *446:38 0
19 *383:12 *447:35 6.24428e-05
20 *383:12 *447:113 3.01536e-05
21 *383:12 *450:10 0
22 *383:12 *450:19 0
23 *383:12 *450:38 0
24 *383:12 *451:10 0
25 *383:12 *451:32 0
26 *383:12 *451:60 0.000155942
27 *383:12 *451:71 0.000227543
28 *383:12 *452:10 0
29 *383:12 *467:27 7.27196e-05
30 *383:12 *467:49 0.000214289
31 *383:12 *467:60 0.000193571
32 *383:12 *467:71 0.000108322
33 *383:12 *467:86 0.000288258
34 *383:12 *469:16 0.000467266
35 *383:12 *470:10 0.000261954
36 *383:12 *470:16 7.61005e-05
37 *383:12 *470:37 0.000123828
38 *383:12 *470:39 0.000113056
39 *383:16 *2089:A 2.30292e-05
40 *383:16 *395:12 2.75229e-05
41 *1718:B *383:12 0.000138551
42 *1800:A1 *383:12 0
43 *1800:A2 *383:12 6.14689e-05
44 *1802:C *383:12 1.34361e-05
45 *1849:A1 *383:12 0.00018471
46 *1849:A2 *383:12 0
47 *1850:C *383:12 0.000137578
48 *1851:A *383:12 2.03321e-05
49 *1934:B1 *383:12 0.000140912
50 *156:8 *383:12 0.000203002
51 *275:25 *383:12 0.000119504
52 *276:19 *383:12 6.23119e-05
53 *277:10 *383:12 7.36484e-05
54 *325:21 *383:12 6.31804e-05
*RES
1 *1909:Y *383:12 49.14 
2 *383:12 *383:16 2.795 
3 *383:16 *1922:A 1.96 
4 *383:16 *1923:A 10.49 
*END

*D_NET *384 0.00111188
*CONN
*I *1916:A_N I *D sky130_fd_sc_hd__and2b_2
*I *1917:B I *D sky130_fd_sc_hd__xnor2_2
*I *1910:X O *D sky130_fd_sc_hd__o21a_2
*CAP
1 *1916:A_N 0.000184476
2 *1917:B 0
3 *1910:X 0.00020977
4 *384:10 0.000394246
5 *1916:A_N *1916:B 3.09179e-05
6 *1916:A_N *1917:A 7.89689e-05
7 *1916:A_N *389:8 3.1835e-05
8 *1892:A *1916:A_N 0
9 *1894:B *384:10 2.75229e-05
10 *1910:B1 *384:10 3.72916e-05
11 *359:10 *1916:A_N 0
12 *368:12 *384:10 0.000116853
*RES
1 *1910:X *384:10 6.81 
2 *384:10 *1917:B 3.6 
3 *384:10 *1916:A_N 6.975 
*END

*D_NET *385 0.00176991
*CONN
*I *1912:B I *D sky130_fd_sc_hd__nand2_2
*I *1911:X O *D sky130_fd_sc_hd__a21o_2
*CAP
1 *1912:B 0.000211158
2 *1911:X 0.000211158
3 *1880:B *1912:B 4.82863e-05
4 *1911:A1 *1912:B 1.61831e-05
5 *1911:A2 *1912:B 5.93869e-05
6 *1911:B1 *1912:B 8.8266e-05
7 *303:12 *1912:B 0.000123225
8 *355:8 *1912:B 0.000122155
9 *366:12 *1912:B 0.000890089
*RES
1 *1911:X *1912:B 11.6 
*END

*D_NET *386 0.0012078
*CONN
*I *1915:A I *D sky130_fd_sc_hd__xor2_2
*I *1914:A I *D sky130_fd_sc_hd__and2_2
*I *1912:Y O *D sky130_fd_sc_hd__nand2_2
*CAP
1 *1915:A 0
2 *1914:A 0.000115363
3 *1912:Y 0.000148146
4 *386:6 0.000263509
5 *1914:A *1914:B 0.000163019
6 *386:6 *1915:B 0.000181005
7 *355:8 *386:6 5.83121e-06
8 *359:10 *386:6 1.61831e-05
9 *366:12 *386:6 0.000314745
*RES
1 *1912:Y *386:6 5.845 
2 *386:6 *1914:A 7.94 
3 *386:6 *1915:A 1.6 
*END

*D_NET *387 0.00433564
*CONN
*I *1914:B I *D sky130_fd_sc_hd__and2_2
*I *1915:B I *D sky130_fd_sc_hd__xor2_2
*I *1913:X O *D sky130_fd_sc_hd__or3_4
*CAP
1 *1914:B 0.000105526
2 *1915:B 0.00146932
3 *1913:X 0.0013638
4 *1915:B *1823:B1 3.96737e-05
5 *1915:B *1823:B2 4.94474e-05
6 *1915:B *1824:A 3.10739e-05
7 *1915:B *445:73 3.66286e-05
8 *1915:B *445:87 0.00030231
9 *1915:B *514:42 2.20732e-05
10 *1915:B *514:51 0.000199679
11 *1827:B *1915:B 4.06545e-05
12 *1880:B *1915:B 4.82863e-05
13 *1882:A *1915:B 2.97004e-06
14 *1883:A *1915:B 8.307e-05
15 *1884:A *1915:B 3.47837e-05
16 *1914:A *1914:B 0.000163019
17 *359:10 *1915:B 0.000162311
18 *366:12 *1914:B 0
19 *386:6 *1915:B 0.000181005
*RES
1 *1913:X *1915:B 27.2675 
2 *1915:B *1914:B 8 
*END

*D_NET *388 0.00277036
*CONN
*I *1931:A I *D sky130_fd_sc_hd__or4_4
*I *1930:A1 I *D sky130_fd_sc_hd__o22a_2
*I *1914:X O *D sky130_fd_sc_hd__and2_2
*CAP
1 *1931:A 0.000125326
2 *1930:A1 0.000102648
3 *1914:X 0.000912159
4 *388:10 0.00114013
5 *1930:A1 *1920:B 0
6 *1930:A1 *1921:B 8.53113e-06
7 *1930:A1 *1930:A2 0.000139238
8 *1930:A1 *1931:B 6.68849e-05
9 *1931:A *1931:B 0.000199833
10 *1931:A *1931:C 2.53871e-05
11 *1931:A *390:8 1.56428e-05
12 *1931:A *470:10 3.64998e-06
13 *388:10 *1931:B 3.09233e-05
14 *388:10 *1937:B1 0
*RES
1 *1914:X *388:10 14.055 
2 *388:10 *1930:A1 6 
3 *388:10 *1931:A 6.12 
*END

*D_NET *389 0.000816424
*CONN
*I *1916:B I *D sky130_fd_sc_hd__and2b_2
*I *1917:A I *D sky130_fd_sc_hd__xnor2_2
*I *1915:X O *D sky130_fd_sc_hd__xor2_2
*CAP
1 *1916:B 0.000119197
2 *1917:A 0.00012071
3 *1915:X 9.74439e-05
4 *389:8 0.000337351
5 *1916:A_N *1916:B 3.09179e-05
6 *1916:A_N *1917:A 7.89689e-05
7 *1916:A_N *389:8 3.1835e-05
*RES
1 *1915:X *389:8 3.1 
2 *389:8 *1917:A 8 
3 *389:8 *1916:B 3.43 
*END

*D_NET *390 0.00162593
*CONN
*I *1931:B I *D sky130_fd_sc_hd__or4_4
*I *1930:A2 I *D sky130_fd_sc_hd__o22a_2
*I *1916:X O *D sky130_fd_sc_hd__and2b_2
*CAP
1 *1931:B 0.0001381
2 *1930:A2 4.49346e-05
3 *1916:X 0.000356961
4 *390:8 0.000539995
5 *1930:A2 *1931:D 5.7344e-05
6 *1930:A2 *396:10 1.89685e-05
7 *1931:B *1931:C 0
8 *1931:B *1931:D 1.71013e-05
9 *1931:B *1937:B1 0
10 *1930:A1 *1930:A2 0.000139238
11 *1930:A1 *1931:B 6.68849e-05
12 *1931:A *1931:B 0.000199833
13 *1931:A *390:8 1.56428e-05
14 *388:10 *1931:B 3.09233e-05
*RES
1 *1916:X *390:8 7.5 
2 *390:8 *1930:A2 5.235 
3 *390:8 *1931:B 6.555 
*END

*D_NET *391 0.00073236
*CONN
*I *1921:B I *D sky130_fd_sc_hd__xor2_2
*I *1920:A I *D sky130_fd_sc_hd__and2_2
*I *1917:Y O *D sky130_fd_sc_hd__xnor2_2
*CAP
1 *1921:B 0.000228676
2 *1920:A 0
3 *1917:Y 7.56277e-05
4 *391:6 0.000304304
5 *1921:B *1920:B 5.51245e-05
6 *1921:B *393:12 3.25831e-05
7 *1921:B *394:8 2.75145e-05
8 *1921:B *396:10 0
9 *1930:A1 *1921:B 8.53113e-06
*RES
1 *1917:Y *391:6 2.74 
2 *391:6 *1920:A 1.6 
3 *391:6 *1921:B 7.975 
*END

*D_NET *392 0.000207527
*CONN
*I *1919:B I *D sky130_fd_sc_hd__nand2_2
*I *1918:X O *D sky130_fd_sc_hd__a21o_2
*CAP
1 *1919:B 0.000103763
2 *1918:X 0.000103763
3 *1919:B *470:10 0
*RES
1 *1918:X *1919:B 8.835 
*END

*D_NET *393 0.0012954
*CONN
*I *1920:B I *D sky130_fd_sc_hd__and2_2
*I *1921:A I *D sky130_fd_sc_hd__xor2_2
*I *1919:Y O *D sky130_fd_sc_hd__nand2_2
*CAP
1 *1920:B 0.000207041
2 *1921:A 0
3 *1919:Y 0.000336368
4 *393:12 0.00054341
5 *393:12 *396:10 6.64979e-05
6 *393:12 *470:10 0
7 *1921:B *1920:B 5.51245e-05
8 *1921:B *393:12 3.25831e-05
9 *1930:A1 *1920:B 0
10 *369:12 *1920:B 5.43769e-05
*RES
1 *1919:Y *393:12 10.76 
2 *393:12 *1921:A 1.6 
3 *393:12 *1920:B 9.335 
*END

*D_NET *394 0.000847735
*CONN
*I *1931:C I *D sky130_fd_sc_hd__or4_4
*I *1930:B1 I *D sky130_fd_sc_hd__o22a_2
*I *1920:X O *D sky130_fd_sc_hd__and2_2
*CAP
1 *1931:C 9.44137e-05
2 *1930:B1 0
3 *1920:X 0.000179629
4 *394:8 0.000274043
5 *1931:C *1931:D 7.81954e-05
6 *1931:C *1932:A_N 5.4003e-05
7 *1931:C *1937:B1 0.000109016
8 *1931:C *396:10 5.53249e-06
9 *1921:B *394:8 2.75145e-05
10 *1931:A *1931:C 2.53871e-05
11 *1931:B *1931:C 0
*RES
1 *1920:X *394:8 4.135 
2 *394:8 *1930:B1 1.6 
3 *394:8 *1931:C 8.18375 
*END

*D_NET *395 0.000445157
*CONN
*I *2089:A I *D sky130_fd_sc_hd__buf_2
*I *1922:B I *D sky130_fd_sc_hd__and2_4
*I *1921:X O *D sky130_fd_sc_hd__xor2_2
*CAP
1 *2089:A 3.9347e-05
2 *1922:B 0
3 *1921:X 7.79762e-05
4 *395:12 0.000117323
5 *395:12 *470:10 7.81876e-05
6 *1923:A *2089:A 2.75145e-05
7 *1923:A *395:12 5.4256e-05
8 *383:16 *2089:A 2.30292e-05
9 *383:16 *395:12 2.75229e-05
*RES
1 *1921:X *395:12 7.685 
2 *395:12 *1922:B 1.6 
3 *395:12 *2089:A 2.395 
*END

*D_NET *396 0.000888419
*CONN
*I *1931:D I *D sky130_fd_sc_hd__or4_4
*I *1930:B2 I *D sky130_fd_sc_hd__o22a_2
*I *1922:X O *D sky130_fd_sc_hd__and2_4
*CAP
1 *1931:D 5.16288e-05
2 *1930:B2 0
3 *1922:X 0.000233045
4 *396:10 0.000284674
5 *396:10 *1932:A_N 7.5431e-05
6 *396:10 *470:10 0
7 *1921:B *396:10 0
8 *1930:A2 *1931:D 5.7344e-05
9 *1930:A2 *396:10 1.89685e-05
10 *1931:B *1931:D 1.71013e-05
11 *1931:C *1931:D 7.81954e-05
12 *1931:C *396:10 5.53249e-06
13 *393:12 *396:10 6.64979e-05
*RES
1 *1922:X *396:10 8.325 
2 *396:10 *1930:B2 3.6 
3 *396:10 *1931:D 5.235 
*END

*D_NET *397 0.00154579
*CONN
*I *1926:A I *D sky130_fd_sc_hd__xnor2_2
*I *1925:B I *D sky130_fd_sc_hd__and2b_2
*I *1923:X O *D sky130_fd_sc_hd__xor2_2
*CAP
1 *1926:A 8.91476e-05
2 *1925:B 0.000139505
3 *1923:X 0.0003737
4 *397:6 0.000602353
5 *1925:B *1924:A2 0.000164874
6 *1925:B *1925:A_N 5.4155e-06
7 *1926:A *1924:A2 7.00889e-06
8 *1926:A *1925:A_N 4.82863e-05
9 *1926:A *1926:B 6.55328e-05
10 *1926:A *1929:B1 0
11 *397:6 *1925:A_N 4.99619e-05
*RES
1 *1923:X *397:6 6.88 
2 *397:6 *1925:B 4.3 
3 *397:6 *1926:A 7.685 
*END

*D_NET *398 0.000519461
*CONN
*I *1925:A_N I *D sky130_fd_sc_hd__and2b_2
*I *1926:B I *D sky130_fd_sc_hd__xnor2_2
*I *1924:Y O *D sky130_fd_sc_hd__a21oi_2
*CAP
1 *1925:A_N 0.000103948
2 *1926:B 6.30927e-05
3 *1924:Y 0
4 *398:4 0.00016704
5 *1925:A_N *1924:A2 1.61831e-05
6 *1926:B *1933:B 0
7 *1925:B *1925:A_N 5.4155e-06
8 *1926:A *1925:A_N 4.82863e-05
9 *1926:A *1926:B 6.55328e-05
10 *397:6 *1925:A_N 4.99619e-05
*RES
1 *1924:Y *398:4 1.6 
2 *398:4 *1926:B 6.98 
3 *398:4 *1925:A_N 3.1 
*END

*D_NET *399 0.000637086
*CONN
*I *1929:B1 I *D sky130_fd_sc_hd__a21o_4
*I *1925:X O *D sky130_fd_sc_hd__and2b_2
*CAP
1 *1929:B1 0.000271403
2 *1925:X 0.000271403
3 *1929:B1 *1929:A1 0
4 *1929:B1 *1929:A2 9.428e-05
5 *1926:A *1929:B1 0
*RES
1 *1925:X *1929:B1 12.015 
*END

*D_NET *400 0.000358912
*CONN
*I *1928:A I *D sky130_fd_sc_hd__xor2_2
*I *1929:A2 I *D sky130_fd_sc_hd__a21o_4
*I *1926:Y O *D sky130_fd_sc_hd__xnor2_2
*CAP
1 *1928:A 5.27404e-05
2 *1929:A2 7.95754e-05
3 *1926:Y 0.000132316
4 *1929:A2 *1929:A1 0
5 *1929:B1 *1929:A2 9.428e-05
*RES
1 *1926:Y *1929:A2 9.09 
2 *1926:Y *1928:A 3.995 
*END

*D_NET *401 0.00107795
*CONN
*I *1929:A1 I *D sky130_fd_sc_hd__a21o_4
*I *1928:B I *D sky130_fd_sc_hd__xor2_2
*I *1927:X O *D sky130_fd_sc_hd__a21o_4
*CAP
1 *1929:A1 0.000272955
2 *1928:B 0.000538974
3 *1927:X 0.000266019
4 *1928:B *1924:A2 0
5 *1929:A1 *2079:A 0
6 *1927:A2 *1928:B 0
7 *1929:A2 *1929:A1 0
8 *1929:B1 *1929:A1 0
*RES
1 *1927:X *1928:B 9.9275 
2 *1928:B *1929:A1 9.83 
*END

*D_NET *402 0.00175246
*CONN
*I *1933:A I *D sky130_fd_sc_hd__xor2_2
*I *1937:A1 I *D sky130_fd_sc_hd__a21o_2
*I *1929:X O *D sky130_fd_sc_hd__a21o_4
*CAP
1 *1933:A 0.000116464
2 *1937:A1 0.000461965
3 *1929:X 0.000120792
4 *402:6 0.000699221
5 *1933:A *2080:A 0
6 *1937:A1 *2080:A 0.0001249
7 *1937:A1 *2081:A 7.37172e-05
8 y[8] *1937:A1 9.21168e-05
9 y[9] *1937:A1 6.32842e-05
*RES
1 *1929:X *402:6 3.43 
2 *402:6 *1937:A1 10 
3 *402:6 *1933:A 7.49 
*END

*D_NET *403 0.00137601
*CONN
*I *1937:B1 I *D sky130_fd_sc_hd__a21o_2
*I *1932:A_N I *D sky130_fd_sc_hd__and2b_2
*I *1930:X O *D sky130_fd_sc_hd__o22a_2
*CAP
1 *1937:B1 0.000180433
2 *1932:A_N 0.000140097
3 *1930:X 0
4 *403:6 0.00032053
5 *1932:A_N *470:10 0.000233925
6 *1937:B1 *1932:B 0
7 *1937:B1 *1937:A2 7.89689e-05
8 *1937:B1 *2081:A 4.82863e-05
9 *1937:B1 *470:10 7.4027e-05
10 *1931:B *1937:B1 0
11 *1931:C *1932:A_N 5.4003e-05
12 *1931:C *1937:B1 0.000109016
13 *2055:A *1937:B1 0
14 *369:12 *1932:A_N 6.12954e-05
15 *388:10 *1937:B1 0
16 *396:10 *1932:A_N 7.5431e-05
*RES
1 *1930:X *403:6 3.6 
2 *403:6 *1932:A_N 7.74 
3 *403:6 *1937:B1 7.725 
*END

*D_NET *404 0.000889967
*CONN
*I *1932:B I *D sky130_fd_sc_hd__and2b_2
*I *1937:A2 I *D sky130_fd_sc_hd__a21o_2
*I *1931:X O *D sky130_fd_sc_hd__or4_4
*CAP
1 *1932:B 0.000226475
2 *1937:A2 5.09754e-05
3 *1931:X 0.00027745
4 *1932:B *1923:B 1.01661e-05
5 *1932:B *470:10 0
6 *1923:A *1932:B 0.000141606
7 *1937:B1 *1932:B 0
8 *1937:B1 *1937:A2 7.89689e-05
9 *2055:A *1937:A2 7.81954e-05
10 *369:12 *1932:B 2.61299e-05
*RES
1 *1931:X *1937:A2 8.835 
2 *1931:X *1932:B 11.415 
*END

*D_NET *405 0.00111363
*CONN
*I *1933:B I *D sky130_fd_sc_hd__xor2_2
*I *1932:X O *D sky130_fd_sc_hd__and2b_2
*CAP
1 *1933:B 0.000478998
2 *1932:X 0.000478998
3 *1933:B *1924:A1 0
4 *1924:B1 *1933:B 0
5 *1926:B *1933:B 0
6 *369:12 *1933:B 0.000155636
*RES
1 *1932:X *1933:B 12.575 
*END

*D_NET *406 0.000314467
*CONN
*I *1935:B I *D sky130_fd_sc_hd__nor2_2
*I *1934:Y O *D sky130_fd_sc_hd__a21oi_2
*CAP
1 *1935:B 0.000104161
2 *1934:Y 0.000104161
3 *1935:B *446:54 0.000106145
*RES
1 *1934:Y *1935:B 5.045 
*END

*D_NET *407 0.00555288
*CONN
*I *1965:A0 I *D sky130_fd_sc_hd__mux2_1
*I *1944:B I *D sky130_fd_sc_hd__and2_2
*I *1943:X O *D sky130_fd_sc_hd__and2_2
*CAP
1 *1965:A0 0.000451174
2 *1944:B 0.00218442
3 *1943:X 0.0026356
4 *1944:B *1939:B 0
5 *1965:A0 *1602:A 2.96396e-05
6 *1965:A0 *1943:B 1.54061e-06
7 *1965:A0 *1950:B1 0
8 *1965:A0 *2039:A 0
9 *1965:A0 *419:24 7.09999e-05
10 *1965:A0 *419:33 0.0001274
11 *1965:A0 *419:46 5.21046e-05
12 *1965:A0 *491:16 0
13 *2004:D *1965:A0 0
*RES
1 *1943:X *1944:B 35.635 
2 *1943:X *1965:A0 14.985 
*END

*D_NET *408 0.00346252
*CONN
*I *1956:A1 I *D sky130_fd_sc_hd__o21a_2
*I *1953:C I *D sky130_fd_sc_hd__nor3_2
*I *1952:X O *D sky130_fd_sc_hd__or4_2
*CAP
1 *1956:A1 0.000155718
2 *1953:C 0
3 *1952:X 0.000878398
4 *408:16 0.00103412
5 *1956:A1 *1949:A 2.02316e-05
6 *1956:A1 *1956:A2 4.66108e-05
7 *1956:A1 *1956:B1 5.01786e-05
8 *1956:A1 *491:35 0.000156611
9 *408:16 *1949:B 0.000237243
10 *408:16 *1952:B 0.000257223
11 *408:16 *1952:D 0
12 *408:16 *1953:B 5.67938e-05
13 *408:16 *1964:C 0.000208382
14 *408:16 *418:67 0
15 *408:16 *425:14 1.12578e-05
16 *408:16 *429:14 4.93402e-05
17 *408:16 *491:35 5.16418e-05
18 *408:16 *493:10 0
19 *408:16 *493:88 0.000227679
20 *2008:D *1956:A1 2.10905e-05
*RES
1 *1952:X *408:16 22.9 
2 *408:16 *1953:C 3.6 
3 *408:16 *1956:A1 6.9 
*END

*D_NET *409 0.00478194
*CONN
*I *1964:D_N I *D sky130_fd_sc_hd__or4b_2
*I *1954:B I *D sky130_fd_sc_hd__nor2_2
*I *1953:Y O *D sky130_fd_sc_hd__nor3_2
*CAP
1 *1964:D_N 0
2 *1954:B 0.00128192
3 *1953:Y 0.00032966
4 *409:8 0.00161158
5 *1954:B *1955:A 0.000332274
6 *1954:B *1961:A0 0.000356418
7 *1954:B *1961:A1 2.69217e-05
8 *1954:B *1961:S 4.77769e-05
9 *1954:B *1962:B 3.85595e-05
10 *1954:B *1963:A_N 4.36535e-05
11 *1954:B *478:45 3.79318e-05
12 *409:8 *1953:B 8.65961e-05
13 *409:8 *1964:A 3.13643e-05
14 *409:8 *1964:C 1.47256e-05
15 *409:8 *1965:S 2.78555e-05
16 *1981:D *1954:B 0.000147629
17 *1983:D *1954:B 0.000297772
18 *2061:A *1954:B 6.93017e-05
*RES
1 *1953:Y *409:8 5.77 
2 *409:8 *1954:B 31.0178 
3 *409:8 *1964:D_N 1.6 
*END

*D_NET *410 0.00127354
*CONN
*I *1956:A2 I *D sky130_fd_sc_hd__o21a_2
*I *1964:B I *D sky130_fd_sc_hd__or4b_2
*I *1955:X O *D sky130_fd_sc_hd__or2_2
*CAP
1 *1956:A2 7.80356e-05
2 *1964:B 0.000133522
3 *1955:X 0.000126652
4 *410:10 0.000338209
5 *1956:A2 *1956:B1 2.10841e-05
6 *1964:B *1964:A 8.51879e-05
7 *1964:B *2002:CLK 9.09788e-06
8 *1964:B *419:91 0.00013642
9 *410:10 *2002:CLK 0.000125151
10 *1956:A1 *1956:A2 4.66108e-05
11 *1982:D *1956:A2 4.77807e-05
12 *2008:D *1956:A2 8.52972e-05
13 *2008:D *410:10 4.04902e-05
*RES
1 *1955:X *410:10 6.03 
2 *410:10 *1964:B 6.03 
3 *410:10 *1956:A2 5.43 
*END

*D_NET *411 0.00175277
*CONN
*I *1958:B I *D sky130_fd_sc_hd__and2_2
*I *1957:X O *D sky130_fd_sc_hd__mux2_1
*CAP
1 *1958:B 0.000567514
2 *1957:X 0.000567514
3 *1958:B *1955:B 0
4 *1958:B *1957:A0 7.03219e-05
5 *1958:B *1957:S 0.000243629
6 *1958:B *1965:A1 8.8266e-05
7 *1958:B *1965:S 0.000163199
8 *1958:B *2039:A 8.53113e-06
9 *1958:B *419:46 0
10 *1983:D *1958:B 4.37989e-05
*RES
1 *1957:X *1958:B 18.195 
*END

*D_NET *412 0.000281652
*CONN
*I *1960:B I *D sky130_fd_sc_hd__and2_2
*I *1959:X O *D sky130_fd_sc_hd__mux2_1
*CAP
1 *1960:B 0.000126408
2 *1959:X 0.000126408
3 *1984:D *1960:B 2.88357e-05
*RES
1 *1959:X *1960:B 5.3 
*END

*D_NET *413 0.000847445
*CONN
*I *1962:B I *D sky130_fd_sc_hd__and2_2
*I *1961:X O *D sky130_fd_sc_hd__mux2_1
*CAP
1 *1962:B 0.000188734
2 *1961:X 0.000188734
3 *1962:B *1962:A 0.0002954
4 *1962:B *1984:CLK 8.89829e-05
5 *1954:B *1962:B 3.85595e-05
6 *1984:D *1962:B 4.70343e-05
7 *1986:D *1962:B 0
*RES
1 *1961:X *1962:B 11.76 
*END

*D_NET *414 0.000928325
*CONN
*I *1965:S I *D sky130_fd_sc_hd__mux2_1
*I *1964:X O *D sky130_fd_sc_hd__or4b_2
*CAP
1 *1965:S 0.000336899
2 *1964:X 0.000336899
3 *1965:S *521:8 6.34721e-05
4 *1958:B *1965:S 0.000163199
5 *409:8 *1965:S 2.78555e-05
*RES
1 *1964:X *1965:S 9.0725 
*END

*D_NET *415 0.00121936
*CONN
*I *1966:B I *D sky130_fd_sc_hd__and2_2
*I *1965:X O *D sky130_fd_sc_hd__mux2_1
*CAP
1 *1966:B 0.000407996
2 *1965:X 0.000407996
3 *1966:B *1954:A 0
4 *1966:B *2007:CLK 0.000316421
5 *1966:B *419:46 3.86607e-05
6 *1987:D *1966:B 4.82863e-05
*RES
1 *1965:X *1966:B 12.93 
*END

*D_NET *416 0.00846133
*CONN
*I *2024:A I *D sky130_fd_sc_hd__clkdlybuf4s25_1
*I *2022:A I *D sky130_fd_sc_hd__clkdlybuf4s25_1
*I *2023:A I *D sky130_fd_sc_hd__clkdlybuf4s25_1
*I *2021:A I *D sky130_fd_sc_hd__clkdlybuf4s25_1
*I *1601:Y O *D sky130_fd_sc_hd__inv_2
*CAP
1 *2024:A 0.000423314
2 *2022:A 0.00107355
3 *2023:A 0.000210411
4 *2021:A 8.23905e-05
5 *1601:Y 0
6 *416:46 0.00229695
7 *416:25 0.00158224
8 *416:4 0.00065413
9 *2021:A *1601:A 5.84828e-05
10 *2021:A *491:16 1.61831e-05
11 *2022:A *1989:CLK 0.000348839
12 *2022:A *1992:CLK 1.83756e-05
13 *2022:A *492:8 1.20414e-05
14 *2024:A *2028:A 4.43871e-06
15 *2024:A *418:15 5.33065e-05
16 *2024:A *418:47 2.28415e-05
17 *2024:A *442:21 6.71506e-05
18 *416:25 *1953:A 9.37731e-05
19 *416:25 *1967:B 7.06865e-05
20 *416:25 *2003:CLK 0.000143872
21 *416:25 *2037:A 4.88478e-05
22 *416:25 *2045:A 1.34503e-05
23 *416:25 *491:16 1.03323e-05
24 *416:25 *491:35 1.26626e-05
25 *416:25 *527:8 0.000234354
26 *416:46 *1949:A 0.000202581
27 *416:46 *1953:A 0.000204661
28 *416:46 *1964:A 0
29 *416:46 *2041:A 0
30 *416:46 *418:15 0
31 *416:46 *421:35 0
32 *416:46 *438:10 0
33 *416:46 *443:12 7.4027e-05
34 *416:46 *491:35 0.000184928
35 *1989:D *2022:A 3.51254e-06
36 *1989:D *2024:A 8.73389e-06
37 *1989:D *416:46 9.84957e-05
38 *1992:D *2022:A 9.0318e-05
39 *2003:D *416:25 1.45248e-05
40 *2062:A *2022:A 2.69203e-05
*RES
1 *1601:Y *416:4 1.6 
2 *416:4 *2021:A 3.46 
3 *416:4 *416:25 11.63 
4 *416:25 *2023:A 6.75 
5 *416:25 *416:46 17.405 
6 *416:46 *2022:A 16.27 
7 *416:46 *2024:A 11.135 
*END

*D_NET *417 0.000877795
*CONN
*I *1950:A1 I *D sky130_fd_sc_hd__a211o_2
*I *1602:Y O *D sky130_fd_sc_hd__inv_2
*CAP
1 *1950:A1 0.000358227
2 *1602:Y 0.000358227
3 *1950:A1 *1950:B1 8.7152e-06
4 *2007:D *1950:A1 0.000152626
5 *3:34 *1950:A1 0
*RES
1 *1602:Y *1950:A1 9.34393 
*END

*D_NET *418 0.00839751
*CONN
*I *2016:A I *D sky130_fd_sc_hd__clkbuf_16
*I *2014:A I *D sky130_fd_sc_hd__clkbuf_16
*I *2015:A I *D sky130_fd_sc_hd__clkbuf_16
*I *2017:A I *D sky130_fd_sc_hd__clkbuf_16
*I *2013:X O *D sky130_fd_sc_hd__clkbuf_16
*CAP
1 *2016:A 0
2 *2014:A 6.5683e-05
3 *2015:A 0.000116932
4 *2017:A 8.02635e-05
5 *2013:X 0
6 *418:81 0.00105313
7 *418:67 0.0013881
8 *418:62 0.000445715
9 *418:47 0.000512071
10 *418:31 0.000866675
11 *418:15 0.00155086
12 *418:6 0.000420606
13 *418:4 9.63616e-05
14 *2014:A *1950:B1 2.71494e-05
15 *2014:A *419:8 3.64998e-06
16 *2015:A *1675:B2 1.34594e-05
17 *2015:A *1968:A 5.4155e-06
18 *2015:A *1968:B 1.60083e-05
19 *2015:A *438:16 2.50602e-05
20 *2017:A *448:8 3.31103e-05
21 *418:6 *1942:A 0.000140761
22 *418:6 *1973:A 6.90876e-05
23 *418:6 *443:12 8.375e-05
24 *418:15 *1942:A 6.19968e-05
25 *418:15 *2028:A 0
26 *418:15 *2041:A 0
27 *418:15 *443:12 6.20667e-05
28 *418:15 *443:22 0
29 *418:15 *523:10 0
30 *418:31 *1995:CLK 6.63219e-06
31 *418:31 *443:22 0
32 *418:47 *1675:A1 6.69341e-05
33 *418:47 *1675:B2 8.61971e-05
34 *418:47 *1968:B 1.15146e-05
35 *418:47 *442:21 0
36 *418:47 *442:32 0
37 *418:62 *1942:A 4.22944e-05
38 *418:62 *1973:A 0.000119631
39 *418:62 *493:57 6.92161e-05
40 *418:67 *1938:B 3.48155e-05
41 *418:67 *1951:A3 9.73303e-05
42 *418:67 *1952:D 0.000183481
43 *418:67 *2044:A 0.000156823
44 *418:67 *493:46 5.42014e-05
45 *418:67 *523:10 0
46 *418:67 *526:10 0.000167944
47 *418:81 *1950:B1 6.66464e-06
48 *418:81 *1952:D 1.00941e-05
49 *418:81 *1953:B 1.03755e-05
50 *418:81 *1967:B 1.7386e-05
51 *418:81 *491:35 8.41015e-06
52 *1676:B *418:47 3.05295e-05
53 *1989:D *418:15 0
54 *1989:D *418:47 0
55 *1995:D *418:31 2.97004e-06
56 *2007:D *418:81 0
57 *2024:A *418:15 5.33065e-05
58 *2024:A *418:47 2.28415e-05
59 *106:18 *418:31 0
60 *408:16 *418:67 0
61 *416:46 *418:15 0
*RES
1 *2013:X *418:4 1.6 
2 *418:4 *418:6 2.3475 
3 *418:6 *418:15 8.81 
4 *418:15 *418:31 8.6445 
5 *418:31 *2017:A 2.86 
6 *418:15 *418:47 8.51 
7 *418:47 *2015:A 3.5275 
8 *418:4 *418:62 3.83 
9 *418:62 *418:67 10.05 
10 *418:67 *418:81 5.6987 
11 *418:81 *2014:A 2.5675 
12 *418:67 *2016:A 3.6 
*END

*D_NET *419 0.00738086
*CONN
*I *2002:CLK I *D sky130_fd_sc_hd__dfxtp_2
*I *1982:CLK I *D sky130_fd_sc_hd__dfxtp_2
*I *2003:CLK I *D sky130_fd_sc_hd__dfxtp_2
*I *2010:CLK I *D sky130_fd_sc_hd__dfxtp_2
*I *2004:CLK I *D sky130_fd_sc_hd__dfxtp_2
*I *1981:CLK I *D sky130_fd_sc_hd__dfxtp_2
*I *1987:CLK I *D sky130_fd_sc_hd__dfxtp_2
*I *2007:CLK I *D sky130_fd_sc_hd__dfxtp_2
*I *2001:CLK I *D sky130_fd_sc_hd__dfxtp_2
*I *2014:X O *D sky130_fd_sc_hd__clkbuf_16
*CAP
1 *2002:CLK 8.56825e-05
2 *1982:CLK 0
3 *2003:CLK 4.76886e-05
4 *2010:CLK 2.08101e-05
5 *2004:CLK 2.08101e-05
6 *1981:CLK 6.84278e-05
7 *1987:CLK 0.000183024
8 *2007:CLK 0.000144267
9 *2001:CLK 0
10 *2014:X 0.000199072
11 *419:91 0.000339884
12 *419:46 0.000429036
13 *419:33 0.00042006
14 *419:24 0.000214623
15 *419:18 0.000548167
16 *419:16 0.000710265
17 *419:10 0.000421561
18 *419:8 0.000548632
19 *1981:CLK *1965:A1 2.98644e-05
20 *1981:CLK *478:21 0.000104891
21 *2003:CLK *2045:A 8.65961e-05
22 *2007:CLK *1950:B1 3.80606e-05
23 *419:8 *1950:B1 0.000532937
24 *419:10 *1948:B 2.43962e-05
25 *419:10 *1953:B 4.04619e-05
26 *419:16 *1948:B 8.47289e-05
27 *419:24 *1950:B1 2.03321e-05
28 *419:24 *2001:D 0.000139697
29 *419:33 *1950:B1 5.00526e-05
30 *419:33 *1954:A 0
31 *419:46 *1954:A 0
32 *419:46 *1965:A1 0.000204729
33 *419:46 *2039:A 0
34 *419:91 *1953:B 9.40875e-05
35 *1958:B *419:46 0
36 *1964:B *2002:CLK 9.09788e-06
37 *1964:B *419:91 0.00013642
38 *1965:A0 *419:24 7.09999e-05
39 *1965:A0 *419:33 0.0001274
40 *1965:A0 *419:46 5.21046e-05
41 *1966:B *2007:CLK 0.000316421
42 *1966:B *419:46 3.86607e-05
43 *1981:D *1981:CLK 5.31158e-06
44 *1987:D *1987:CLK 0.000108763
45 *2002:D *2002:CLK 3.60024e-06
46 *2004:D *419:18 0.000243554
47 *2007:D *2007:CLK 0.000128642
48 *2007:D *419:33 0
49 *2010:D *419:16 1.43717e-05
50 *2014:A *419:8 3.64998e-06
51 *410:10 *2002:CLK 0.000125151
52 *416:25 *2003:CLK 0.000143872
*RES
1 *2014:X *419:8 8.535 
2 *419:8 *419:10 1.635 
3 *419:10 *419:16 6.41 
4 *419:16 *419:18 5.97 
5 *419:18 *419:24 4.43 
6 *419:24 *2001:CLK 3.6 
7 *419:24 *419:33 2.655 
8 *419:33 *2007:CLK 7.515 
9 *419:33 *419:46 4.185 
10 *419:46 *1987:CLK 6.48 
11 *419:46 *1981:CLK 5.235 
12 *419:18 *2004:CLK 1.96 
13 *419:16 *2010:CLK 1.96 
14 *419:10 *2003:CLK 5.085 
15 *419:8 *419:91 4.695 
16 *419:91 *1982:CLK 3.6 
17 *419:91 *2002:CLK 5.49 
*END

*D_NET *420 0.00568591
*CONN
*I *1991:CLK I *D sky130_fd_sc_hd__dfxtp_2
*I *2018:A I *D sky130_fd_sc_hd__clkbuf_4
*I *1986:CLK I *D sky130_fd_sc_hd__dfxtp_2
*I *1985:CLK I *D sky130_fd_sc_hd__dfxtp_2
*I *1984:CLK I *D sky130_fd_sc_hd__dfxtp_2
*I *1989:CLK I *D sky130_fd_sc_hd__dfxtp_2
*I *1992:CLK I *D sky130_fd_sc_hd__dfxtp_2
*I *1990:CLK I *D sky130_fd_sc_hd__dfxtp_2
*I *1983:CLK I *D sky130_fd_sc_hd__dfxtp_2
*I *2015:X O *D sky130_fd_sc_hd__clkbuf_16
*CAP
1 *1991:CLK 0
2 *2018:A 0
3 *1986:CLK 0
4 *1985:CLK 0.000130485
5 *1984:CLK 0.000211427
6 *1989:CLK 0.000339047
7 *1992:CLK 1.3091e-05
8 *1990:CLK 0.000170443
9 *1983:CLK 0.000158867
10 *2015:X 8.22353e-05
11 *420:64 0.000341911
12 *420:62 0.000480611
13 *420:54 0.000621029
14 *420:50 0.000140418
15 *420:34 0.000352138
16 *420:12 0.000435676
17 *420:10 0.00023855
18 *420:8 0.00021442
19 *1983:CLK *1963:B 0
20 *1983:CLK *478:45 0
21 *1983:CLK *492:10 0
22 *1984:CLK *1963:A_N 0.000198945
23 *1990:CLK *1969:B 0.000198618
24 *1990:CLK *439:19 6.41532e-05
25 *420:8 *439:19 0
26 *420:10 *439:19 0
27 *420:12 *1963:C 0
28 *420:12 *439:19 0
29 *420:12 *492:10 0
30 *420:12 *492:34 0
31 *420:62 *441:10 6.97118e-05
32 diag_busy *1984:CLK 0
33 diag_busy *1985:CLK 0
34 *1962:B *1984:CLK 8.89829e-05
35 *1984:D *1984:CLK 0.000160641
36 *1985:D *1984:CLK 7.89689e-05
37 *1985:D *1985:CLK 7.81954e-05
38 *1986:D *1984:CLK 8.69212e-05
39 *1986:D *420:62 1.43717e-05
40 *1990:D *1990:CLK 9.47222e-05
41 *1991:D *420:8 0.000143266
42 *1992:D *1989:CLK 6.25639e-05
43 *1992:D *1992:CLK 4.82863e-05
44 *1992:D *420:8 0
45 *1992:D *420:10 0
46 *1992:D *420:12 0
47 *2022:A *1989:CLK 0.000348839
48 *2022:A *1992:CLK 1.83756e-05
*RES
1 *2015:X *420:8 5.49 
2 *420:8 *420:10 2.145 
3 *420:10 *420:12 1.635 
4 *420:12 *1983:CLK 6 
5 *420:12 *1990:CLK 7.17 
6 *420:10 *420:34 2 
7 *420:34 *1992:CLK 2.05 
8 *420:34 *1989:CLK 8.605 
9 *420:8 *420:50 2 
10 *420:50 *420:54 2.19 
11 *420:54 *420:62 7.14 
12 *420:62 *420:64 2 
13 *420:64 *1984:CLK 9.615 
14 *420:64 *1985:CLK 5.94 
15 *420:62 *1986:CLK 1.6 
16 *420:54 *2018:A 1.6 
17 *420:50 *1991:CLK 1.6 
*END

*D_NET *421 0.00768871
*CONN
*I *2012:CLK I *D sky130_fd_sc_hd__dfxtp_2
*I *2019:A I *D sky130_fd_sc_hd__clkbuf_4
*I *2011:CLK I *D sky130_fd_sc_hd__dfxtp_2
*I *1988:CLK I *D sky130_fd_sc_hd__dfxtp_2
*I *2006:CLK I *D sky130_fd_sc_hd__dfxtp_2
*I *2005:CLK I *D sky130_fd_sc_hd__dfxtp_2
*I *1980:CLK I *D sky130_fd_sc_hd__dfxtp_2
*I *2008:CLK I *D sky130_fd_sc_hd__dfxtp_2
*I *2009:CLK I *D sky130_fd_sc_hd__dfxtp_2
*I *2016:X O *D sky130_fd_sc_hd__clkbuf_16
*CAP
1 *2012:CLK 0.000107259
2 *2019:A 7.79124e-05
3 *2011:CLK 0.00015432
4 *1988:CLK 0.000137733
5 *2006:CLK 0
6 *2005:CLK 0.000358648
7 *1980:CLK 3.43921e-05
8 *2008:CLK 5.8112e-05
9 *2009:CLK 0.00012152
10 *2016:X 0.000728532
11 *421:127 0.000349596
12 *421:92 0.000402131
13 *421:54 0.000946128
14 *421:35 0.00100722
15 *421:16 0.000622075
16 *421:12 0.000558563
17 *2005:CLK *1980:D 0.000110842
18 *2005:CLK *2044:A 4.71087e-05
19 *2005:CLK *526:10 0.000159179
20 *2008:CLK *1964:A 4.0939e-05
21 *2009:CLK *1953:A 0
22 *2009:CLK *2034:A 0
23 *2009:CLK *2040:A 0
24 *2012:CLK *1856:A1 0
25 *421:12 *1939:B 0
26 *421:12 *2034:A 0.000354264
27 *421:12 *2036:A 5.34747e-05
28 *421:16 *2034:A 0.000216183
29 *421:35 *1953:A 0
30 *421:35 *1964:A 6.43854e-05
31 *421:35 *2034:A 0
32 *421:35 *493:10 1.50919e-05
33 *421:35 *493:23 0
34 *421:35 *493:88 0
35 *421:54 *1949:B 9.2986e-05
36 *421:54 *1964:A 5.4419e-05
37 *421:54 *1980:D 4.54805e-05
38 *421:54 *2041:A 0.000101637
39 *421:92 *2036:A 0
40 *421:127 *1856:A1 0
41 *1988:D *1988:CLK 4.82863e-05
42 *2006:D *2009:CLK 0
43 *2006:D *421:12 0.000101196
44 *2006:D *421:16 4.82919e-05
45 *2008:D *2008:CLK 4.66108e-05
46 *2009:D *2009:CLK 4.18603e-06
47 *2011:D *1988:CLK 0.000134762
48 *2011:D *2011:CLK 0.000166951
49 *2012:D *2012:CLK 0.000114649
50 *2012:D *2019:A 3.64998e-06
51 *2042:A *2012:CLK 0
52 *416:46 *421:35 0
*RES
1 *2016:X *421:12 15.275 
2 *421:12 *421:16 4.52 
3 *421:16 *2009:CLK 5.49 
4 *421:16 *421:35 7.2075 
5 *421:35 *2008:CLK 4.9875 
6 *421:35 *421:54 10.3925 
7 *421:54 *1980:CLK 2.215 
8 *421:54 *2005:CLK 10.895 
9 *421:12 *2006:CLK 1.6 
10 *2016:X *421:92 5.94 
11 *421:92 *1988:CLK 6.495 
12 *421:92 *2011:CLK 6.465 
13 *2016:X *421:127 6.03 
14 *421:127 *2019:A 4.74 
15 *421:127 *2012:CLK 5.745 
*END

*D_NET *422 0.00665196
*CONN
*I *1998:CLK I *D sky130_fd_sc_hd__dfxtp_2
*I *1999:CLK I *D sky130_fd_sc_hd__dfxtp_2
*I *2000:CLK I *D sky130_fd_sc_hd__dfxtp_2
*I *2020:A I *D sky130_fd_sc_hd__clkbuf_4
*I *1995:CLK I *D sky130_fd_sc_hd__dfxtp_2
*I *1996:CLK I *D sky130_fd_sc_hd__dfxtp_2
*I *1993:CLK I *D sky130_fd_sc_hd__dfxtp_2
*I *1997:CLK I *D sky130_fd_sc_hd__dfxtp_2
*I *1994:CLK I *D sky130_fd_sc_hd__dfxtp_2
*I *2017:X O *D sky130_fd_sc_hd__clkbuf_16
*CAP
1 *1998:CLK 0
2 *1999:CLK 0.000204392
3 *2000:CLK 1.3091e-05
4 *2020:A 0
5 *1995:CLK 0.000135424
6 *1996:CLK 0.000175582
7 *1993:CLK 0.000217492
8 *1997:CLK 0.000209416
9 *1994:CLK 0.000344127
10 *2017:X 9.34537e-05
11 *422:94 0.000328711
12 *422:67 0.000572308
13 *422:65 0.000342167
14 *422:28 0.000704542
15 *422:26 0.000474124
16 *422:24 0.000482561
17 *422:14 0.000531099
18 *422:12 0.000217261
19 *1994:CLK *448:14 0
20 *1995:CLK *443:22 0
21 *1997:CLK *447:16 3.33839e-05
22 *422:12 *494:45 9.54399e-05
23 *422:14 *2047:A 7.49327e-05
24 *422:14 *494:45 0.000111285
25 *422:24 *1979:A 0.000130792
26 *422:24 *2047:A 4.99619e-05
27 *422:24 *448:14 0
28 *422:24 *494:45 4.35432e-05
29 *422:26 *448:14 0
30 *422:28 *448:14 0
31 *422:65 *449:8 0.000119631
32 *422:67 *449:8 0.000122155
33 *1629:B1 *1999:CLK 4.66108e-05
34 *1630:A *1999:CLK 7.92083e-05
35 *1993:D *1993:CLK 7.82691e-05
36 *1993:D *422:28 0
37 *1994:D *1994:CLK 1.43717e-05
38 *1996:D *1995:CLK 0
39 *1996:D *1996:CLK 1.43717e-05
40 *1999:D *1999:CLK 0
41 *1999:D *422:12 0.000139933
42 *1999:D *422:94 0
43 *2000:D *1999:CLK 4.43871e-06
44 *2000:D *422:14 5.05521e-05
45 *2000:D *422:24 7.10578e-05
46 *2000:D *422:94 7.44375e-05
47 *107:12 *1999:CLK 0
48 *108:8 *1999:CLK 0.000113809
49 *109:14 *1999:CLK 6.47326e-05
50 *141:14 *2000:CLK 4.82863e-05
51 *155:12 *2000:CLK 1.83756e-05
52 *418:31 *1995:CLK 6.63219e-06
*RES
1 *2017:X *422:12 7.685 
2 *422:12 *422:14 2.865 
3 *422:14 *422:24 8.135 
4 *422:24 *422:26 1.635 
5 *422:26 *422:28 2.4 
6 *422:28 *1994:CLK 8.715 
7 *422:28 *1997:CLK 6.81 
8 *422:26 *1993:CLK 6.825 
9 *422:24 *422:65 3.83 
10 *422:65 *422:67 4.59 
11 *422:67 *1996:CLK 4.12 
12 *422:67 *1995:CLK 7.745 
13 *422:65 *2020:A 1.6 
14 *422:14 *422:94 4.145 
15 *422:94 *2000:CLK 4.05 
16 *422:94 *1999:CLK 7.92 
17 *422:12 *1998:CLK 1.6 
*END

*D_NET *423 0.00189195
*CONN
*I *1943:B I *D sky130_fd_sc_hd__and2_2
*I *1950:A2 I *D sky130_fd_sc_hd__a211o_2
*I *2001:Q O *D sky130_fd_sc_hd__dfxtp_2
*CAP
1 *1943:B 0.000258931
2 *1950:A2 3.55506e-05
3 *2001:Q 0.000478746
4 *423:12 0.000773228
5 *1943:B *1602:A 1.40971e-05
6 *1943:B *1950:B1 2.75145e-05
7 *1943:B *1950:C1 5.86895e-06
8 *1943:B *472:10 3.10618e-05
9 *1950:A2 *1950:C1 0
10 *423:12 *472:10 5.73739e-05
11 *1965:A0 *1943:B 1.54061e-06
12 *2057:A *423:12 0
13 *3:34 *423:12 0.000208032
*RES
1 *2001:Q *423:12 13.34 
2 *423:12 *1950:A2 2.215 
3 *423:12 *1943:B 9.41 
*END

*D_NET *424 0.00272845
*CONN
*I *2034:A I *D sky130_fd_sc_hd__dlygate4sd3_1
*I *2011:Q O *D sky130_fd_sc_hd__dfxtp_2
*CAP
1 *2034:A 0.000899183
2 *2011:Q 0.000899183
3 *2034:A *1953:A 0.000210151
4 *2006:D *2034:A 0.000149488
5 *2009:CLK *2034:A 0
6 *421:12 *2034:A 0.000354264
7 *421:16 *2034:A 0.000216183
8 *421:35 *2034:A 0
*RES
1 *2011:Q *2034:A 20.865 
*END

*D_NET *425 0.00282879
*CONN
*I *2043:A I *D sky130_fd_sc_hd__dlygate4sd3_1
*I *1951:A4 I *D sky130_fd_sc_hd__o41a_2
*I *1964:C I *D sky130_fd_sc_hd__or4b_2
*I *2012:Q O *D sky130_fd_sc_hd__dfxtp_2
*CAP
1 *2043:A 0
2 *1951:A4 0
3 *1964:C 0.000203758
4 *2012:Q 0.000111114
5 *425:14 0.000321894
6 *425:12 0.000229251
7 *1964:C *1953:B 9.02174e-05
8 *1964:C *1964:A 0.000475616
9 *425:12 *1938:B 6.90876e-05
10 *425:12 *1952:D 0
11 *425:14 *1938:B 0.000111918
12 *425:14 *1949:B 0.000161837
13 *2042:A *1964:C 0.000162311
14 *2042:A *425:12 0.000124895
15 *2042:A *425:14 0.000532528
16 *408:16 *1964:C 0.000208382
17 *408:16 *425:14 1.12578e-05
18 *409:8 *1964:C 1.47256e-05
*RES
1 *2012:Q *425:12 8.12 
2 *425:12 *425:14 4.935 
3 *425:14 *1964:C 8.62 
4 *425:14 *1951:A4 1.6 
5 *425:12 *2043:A 1.6 
*END

*D_NET *426 0.00283761
*CONN
*I *2041:A I *D sky130_fd_sc_hd__dlygate4sd3_1
*I *1964:A I *D sky130_fd_sc_hd__or4b_2
*I *2002:Q O *D sky130_fd_sc_hd__dfxtp_2
*CAP
1 *2041:A 0.00046705
2 *1964:A 0.00044642
3 *2002:Q 7.85584e-05
4 *426:8 0.000992029
5 *2041:A *443:12 0
6 *2041:A *523:10 0
7 *1964:B *1964:A 8.51879e-05
8 *1964:C *1964:A 0.000475616
9 *2008:CLK *1964:A 4.0939e-05
10 *409:8 *1964:A 3.13643e-05
11 *416:46 *1964:A 0
12 *416:46 *2041:A 0
13 *418:15 *2041:A 0
14 *421:35 *1964:A 6.43854e-05
15 *421:54 *1964:A 5.4419e-05
16 *421:54 *2041:A 0.000101637
*RES
1 *2002:Q *426:8 4.395 
2 *426:8 *1964:A 12.66 
3 *426:8 *2041:A 11.475 
*END

*D_NET *427 0.00104432
*CONN
*I *2040:A I *D sky130_fd_sc_hd__dlygate4sd3_1
*I *2003:Q O *D sky130_fd_sc_hd__dfxtp_2
*CAP
1 *2040:A 0.000169487
2 *2003:Q 0.000169487
3 *2040:A *1945:B 0.000203178
4 *2040:A *493:94 0.000201508
5 *2006:D *2040:A 0.000133473
6 *2009:CLK *2040:A 0
7 *2009:D *2040:A 0.000167187
*RES
1 *2003:Q *2040:A 12.45 
*END

*D_NET *428 0.000309295
*CONN
*I *2037:A I *D sky130_fd_sc_hd__dlygate4sd3_1
*I *2004:Q O *D sky130_fd_sc_hd__dfxtp_2
*CAP
1 *2037:A 0.000130223
2 *2004:Q 0.000130223
3 *416:25 *2037:A 4.88478e-05
*RES
1 *2004:Q *2037:A 9.375 
*END

*D_NET *429 0.00202833
*CONN
*I *1951:A1 I *D sky130_fd_sc_hd__o41a_2
*I *1952:B I *D sky130_fd_sc_hd__or4_2
*I *2046:A I *D sky130_fd_sc_hd__dlygate4sd3_1
*I *2005:Q O *D sky130_fd_sc_hd__dfxtp_2
*CAP
1 *1951:A1 0
2 *1952:B 0.000349991
3 *2046:A 0
4 *2005:Q 0.000223072
5 *429:14 0.00046685
6 *429:10 0.000339932
7 *1952:B *1952:D 0
8 *1952:B *1967:A 0.00012994
9 *1952:B *493:88 2.75145e-05
10 *1952:B *493:116 9.50342e-06
11 *429:10 *1938:B 0
12 *429:10 *1951:A2 0.000161337
13 *429:14 *1938:B 0
14 *429:14 *1949:B 8.09021e-06
15 *429:14 *1951:A2 5.53249e-06
16 *429:14 *493:10 0
17 *408:16 *1952:B 0.000257223
18 *408:16 *429:14 4.93402e-05
*RES
1 *2005:Q *429:10 7.725 
2 *429:10 *429:14 4.145 
3 *429:14 *2046:A 1.6 
4 *429:14 *1952:B 12.89 
5 *429:10 *1951:A1 3.6 
*END

*D_NET *430 0.000660246
*CONN
*I *2036:A I *D sky130_fd_sc_hd__dlygate4sd3_1
*I *2006:Q O *D sky130_fd_sc_hd__dfxtp_2
*CAP
1 *2036:A 0.000303386
2 *2006:Q 0.000303386
3 *2036:A *1939:B 0
4 *2036:A *1952:A 0
5 *2036:A *1952:D 0
6 *421:12 *2036:A 5.34747e-05
7 *421:92 *2036:A 0
*RES
1 *2006:Q *2036:A 11.76 
*END

*D_NET *431 0.000524448
*CONN
*I *2039:A I *D sky130_fd_sc_hd__dlygate4sd3_1
*I *2007:Q O *D sky130_fd_sc_hd__dfxtp_2
*CAP
1 *2039:A 0.000221016
2 *2007:Q 0.000221016
3 *2039:A *1947:B 2.67022e-05
4 *2039:A *1950:B1 2.68506e-05
5 *2039:A *1955:B 2.03321e-05
6 *1958:B *2039:A 8.53113e-06
7 *1965:A0 *2039:A 0
8 *419:46 *2039:A 0
*RES
1 *2007:Q *2039:A 10.41 
*END

*D_NET *432 0.00204359
*CONN
*I *2044:A I *D sky130_fd_sc_hd__dlygate4sd3_1
*I *1951:A3 I *D sky130_fd_sc_hd__o41a_2
*I *2008:Q O *D sky130_fd_sc_hd__dfxtp_2
*CAP
1 *2044:A 0.000110873
2 *1951:A3 0.000274544
3 *2008:Q 4.20666e-05
4 *432:8 0.000427484
5 *1951:A3 *1938:B 0.000135382
6 *1951:A3 *493:46 5.05981e-05
7 *2044:A *1980:D 8.41384e-05
8 *2044:A *493:46 0.000277691
9 *432:8 *1946:A 2.49909e-05
10 *432:8 *493:23 5.83121e-06
11 *2005:CLK *2044:A 4.71087e-05
12 *2042:A *1951:A3 0.000308724
13 *418:67 *1951:A3 9.73303e-05
14 *418:67 *2044:A 0.000156823
*RES
1 *2008:Q *432:8 4.05 
2 *432:8 *1951:A3 8.61 
3 *432:8 *2044:A 7.815 
*END

*D_NET *433 0.000569909
*CONN
*I *2038:A I *D sky130_fd_sc_hd__dlygate4sd3_1
*I *2009:Q O *D sky130_fd_sc_hd__dfxtp_2
*CAP
1 *2038:A 0.000196391
2 *2009:Q 0.000196391
3 *2038:A *1967:A 0.000177127
*RES
1 *2009:Q *2038:A 6.425 
*END

*D_NET *434 0.000775773
*CONN
*I *2045:A I *D sky130_fd_sc_hd__dlygate4sd3_1
*I *2010:Q O *D sky130_fd_sc_hd__dfxtp_2
*CAP
1 *2045:A 0.000183922
2 *2010:Q 0.000183922
3 *2045:A *1948:B 8.08153e-06
4 *2045:A *1967:B 4.82919e-05
5 *2045:A *491:35 0.000114492
6 *2003:CLK *2045:A 8.65961e-05
7 *2003:D *2045:A 0.000137017
8 *416:25 *2045:A 1.34503e-05
*RES
1 *2010:Q *2045:A 10.86 
*END

*D_NET *435 0.000760513
*CONN
*I *2026:A I *D sky130_fd_sc_hd__dlygate4sd3_1
*I *1982:Q O *D sky130_fd_sc_hd__dfxtp_2
*CAP
1 *2026:A 0.000179341
2 *1982:Q 0.000179341
3 *2026:A *1955:B 0.000287182
4 *2026:A *1957:S 0.000114649
*RES
1 *1982:Q *2026:A 11.445 
*END

*D_NET *436 0.000248867
*CONN
*I *2025:A I *D sky130_fd_sc_hd__dlygate4sd3_1
*I *1981:Q O *D sky130_fd_sc_hd__dfxtp_2
*CAP
1 *2025:A 3.40928e-05
2 *1981:Q 3.40928e-05
3 *2025:A *491:106 0.000115945
4 *3:34 *2025:A 6.47357e-05
*RES
1 *1981:Q *2025:A 8.58 
*END

*D_NET *437 0.00088763
*CONN
*I *2027:A I *D sky130_fd_sc_hd__dlygate4sd3_1
*I *1980:Q O *D sky130_fd_sc_hd__dfxtp_2
*CAP
1 *2027:A 0.000311998
2 *1980:Q 0.000311998
3 *2027:A *1949:B 0.000195986
4 *2002:D *2027:A 4.77769e-05
5 *3:34 *2027:A 1.9872e-05
*RES
1 *1980:Q *2027:A 8.495 
*END

*D_NET *438 0.00800727
*CONN
*I *1627:D I *D sky130_fd_sc_hd__and4_2
*I *1623:B2 I *D sky130_fd_sc_hd__a22o_2
*I *1616:A I *D sky130_fd_sc_hd__nand2_2
*I *1690:A I *D sky130_fd_sc_hd__nand4_2
*I *1691:A1 I *D sky130_fd_sc_hd__a22o_4
*I *1617:A I *D sky130_fd_sc_hd__and3_2
*I *1612:D I *D sky130_fd_sc_hd__nand4_2
*I *1675:B2 I *D sky130_fd_sc_hd__a22oi_2
*I *1968:A I *D sky130_fd_sc_hd__and2_2
*I *1983:Q O *D sky130_fd_sc_hd__dfxtp_2
*CAP
1 *1627:D 9.99836e-05
2 *1623:B2 0
3 *1616:A 2.73304e-05
4 *1690:A 2.84404e-05
5 *1691:A1 0.000468706
6 *1617:A 0
7 *1612:D 2.09178e-05
8 *1675:B2 0.000119591
9 *1968:A 1.3379e-05
10 *1983:Q 0.000537576
11 *438:78 0.000647042
12 *438:69 0.00029685
13 *438:67 0.000351717
14 *438:52 0.000388666
15 *438:46 0.000490448
16 *438:42 0.000581579
17 *438:16 0.000248562
18 *438:10 0.000834631
19 *1612:D *454:43 0.000122801
20 *1612:D *513:23 0.000122801
21 *1627:D *1627:A 2.16917e-05
22 *1627:D *1675:B1 3.83041e-05
23 *1627:D *1968:B 8.40213e-05
24 *1627:D *445:23 4.9968e-05
25 *1627:D *454:56 0.000158072
26 *1675:B2 *1675:A1 0
27 *1675:B2 *1968:B 4.99619e-05
28 *1691:A1 *1691:A2 5.5269e-05
29 *438:10 *439:19 0
30 *438:10 *445:12 4.92047e-05
31 *438:10 *445:23 4.19967e-05
32 *438:42 *439:19 0
33 *438:42 *439:32 0
34 *438:42 *445:23 9.79559e-05
35 *438:46 *1623:A2 4.31857e-05
36 *438:46 *1968:B 9.47267e-06
37 *438:46 *454:56 0.000272485
38 *438:52 *1968:B 0.000161467
39 *438:67 *1616:B 2.10433e-05
40 *438:67 *513:10 0
41 *438:69 *1616:B 0.00027503
42 *1618:B *438:69 2.44112e-05
43 *1689:B1 *438:69 1.71013e-05
44 *1689:B1 *438:78 5.55616e-05
45 *1691:B1 *1691:A1 9.65297e-05
46 *1692:B *1690:A 4.31106e-05
47 *1692:B *438:78 0.000186099
48 *1989:D *438:10 0
49 *2008:D *438:10 4.28112e-06
50 *2015:A *1675:B2 1.34594e-05
51 *2015:A *1968:A 5.4155e-06
52 *2015:A *438:16 2.50602e-05
53 *3:46 *438:10 7.05093e-05
54 *93:19 *438:69 3.76596e-05
55 *94:14 *438:69 0.000114326
56 *168:21 *1690:A 9.50342e-06
57 *169:8 *1691:A1 0.000387891
58 *416:46 *438:10 0
59 *418:47 *1675:B2 8.61971e-05
*RES
1 *1983:Q *438:10 12.66 
2 *438:10 *438:16 3.5 
3 *438:16 *1968:A 1.96 
4 *438:16 *1675:B2 4.45 
5 *438:10 *438:42 5.42 
6 *438:42 *438:46 4.17 
7 *438:46 *438:52 5.375 
8 *438:52 *1612:D 4.74 
9 *438:52 *438:67 3.0825 
10 *438:67 *438:69 4.3125 
11 *438:69 *1617:A 3.6 
12 *438:69 *438:78 3.42 
13 *438:78 *1691:A1 11.565 
14 *438:78 *1690:A 4.215 
15 *438:67 *1616:A 4.2825 
16 *438:46 *1623:B2 1.6 
17 *438:42 *1627:D 8.15 
*END

*D_NET *439 0.00900336
*CONN
*I *1612:B I *D sky130_fd_sc_hd__nand4_2
*I *1613:B1 I *D sky130_fd_sc_hd__a22oi_2
*I *1772:A I *D sky130_fd_sc_hd__and3_2
*I *1771:A1 I *D sky130_fd_sc_hd__a21oi_2
*I *1687:A I *D sky130_fd_sc_hd__nand4_2
*I *1686:A1 I *D sky130_fd_sc_hd__a22o_4
*I *1614:C I *D sky130_fd_sc_hd__and4_2
*I *1623:A2 I *D sky130_fd_sc_hd__a22o_2
*I *1969:A I *D sky130_fd_sc_hd__and2_2
*I *1984:Q O *D sky130_fd_sc_hd__dfxtp_2
*CAP
1 *1612:B 0.000104818
2 *1613:B1 2.38133e-05
3 *1772:A 0.000235403
4 *1771:A1 6.05382e-05
5 *1687:A 0.000236016
6 *1686:A1 0.000220561
7 *1614:C 0
8 *1623:A2 2.30443e-05
9 *1969:A 0
10 *1984:Q 0.000116892
11 *439:81 0.000627188
12 *439:66 0.000654911
13 *439:49 0.000515996
14 *439:40 0.000301255
15 *439:34 0.000412497
16 *439:32 0.000564906
17 *439:19 0.00085298
18 *439:8 0.000781954
19 *1612:B *1612:A 1.77665e-05
20 *1612:B *1623:B1 1.91597e-05
21 *1612:B *454:43 1.19928e-05
22 *1612:B *513:23 1.37328e-05
23 *1613:B1 *440:38 1.37328e-05
24 *1613:B1 *513:23 1.37328e-05
25 *1623:A2 *1968:B 0.000125631
26 *1623:A2 *454:56 5.09682e-05
27 *1686:A1 *485:20 6.78079e-05
28 *439:8 *1969:B 0.000237611
29 *439:19 *1969:B 8.64421e-05
30 *439:19 *445:12 0
31 *439:32 *1623:B1 0.000136877
32 *439:34 *1613:B2 2.16833e-05
33 *439:34 *454:43 2.7441e-05
34 *439:34 *513:23 0.000499748
35 *439:40 *441:19 7.89689e-05
36 *439:40 *441:36 1.71013e-05
37 *439:40 *454:43 1.83847e-05
38 *439:40 *513:10 0
39 *439:49 *441:36 8.34348e-05
40 *439:49 *441:46 8.77811e-05
41 *439:49 *513:10 0
42 *439:66 *441:46 2.88436e-05
43 *439:81 *1690:D 0
44 *439:81 *441:46 0.000575595
45 *439:81 *495:26 0
46 *1615:A *439:40 5.92849e-05
47 *1615:A *439:49 4.18603e-06
48 *1686:B2 *1686:A1 7.22354e-05
49 *1688:C *439:49 9.29751e-06
50 *1689:A1 *439:49 8.53113e-06
51 *1689:A1 *439:66 9.37731e-05
52 *1689:A1 *439:81 1.65192e-05
53 *1689:A2 *1687:A 9.68131e-05
54 *1689:B1 *1687:A 4.66108e-05
55 *1689:B1 *439:66 8.49205e-05
56 *1770:A1 *439:81 7.44375e-05
57 *1771:B1 *1772:A 0.00016492
58 *1776:A *439:81 0
59 *1778:A *1772:A 0
60 *1990:CLK *439:19 6.41532e-05
61 *1991:D *439:19 0
62 *93:19 *439:49 0
63 *166:8 *439:49 0
64 *166:8 *439:81 0
65 *244:10 *1772:A 7.21296e-06
66 *244:10 *439:81 0.000190065
67 *420:8 *439:19 0
68 *420:10 *439:19 0
69 *420:12 *439:19 0
70 *438:10 *439:19 0
71 *438:42 *439:19 0
72 *438:42 *439:32 0
73 *438:46 *1623:A2 4.31857e-05
*RES
1 *1984:Q *439:8 4.135 
2 *439:8 *1969:A 1.6 
3 *439:8 *439:19 12.35 
4 *439:19 *1623:A2 4.75875 
5 *439:19 *439:32 4.4 
6 *439:32 *439:34 5.625 
7 *439:34 *439:40 4.34 
8 *439:40 *1614:C 3.6 
9 *439:40 *439:49 4.44 
10 *439:49 *1686:A1 7.17 
11 *439:49 *439:66 3.92 
12 *439:66 *1687:A 4.735 
13 *439:66 *439:81 12.775 
14 *439:81 *1771:A1 2.395 
15 *439:81 *1772:A 10.085 
16 *439:34 *1613:B1 2.215 
17 *439:32 *1612:B 3.355 
*END

*D_NET *440 0.00713142
*CONN
*I *1769:A I *D sky130_fd_sc_hd__nand2_2
*I *1832:B2 I *D sky130_fd_sc_hd__a22oi_2
*I *1833:A I *D sky130_fd_sc_hd__and4_2
*I *1768:A I *D sky130_fd_sc_hd__and4_2
*I *1684:A I *D sky130_fd_sc_hd__nand4_4
*I *1685:A1 I *D sky130_fd_sc_hd__a22o_4
*I *1614:A I *D sky130_fd_sc_hd__and4_2
*I *1613:A1 I *D sky130_fd_sc_hd__a22oi_2
*I *1970:A I *D sky130_fd_sc_hd__and2_2
*I *1985:Q O *D sky130_fd_sc_hd__dfxtp_2
*CAP
1 *1769:A 0.000428923
2 *1832:B2 0
3 *1833:A 3.18487e-05
4 *1768:A 0.000190483
5 *1684:A 0
6 *1685:A1 0
7 *1614:A 4.23827e-05
8 *1613:A1 0
9 *1970:A 5.34204e-05
10 *1985:Q 3.95065e-05
11 *440:99 0.000508253
12 *440:86 0.000341339
13 *440:75 0.000957753
14 *440:66 0.000777493
15 *440:53 0.000285854
16 *440:38 0.00023965
17 *440:25 0.000300542
18 *440:8 0.000241672
19 *1614:A *1685:B1 8.65961e-05
20 *1768:A *1768:C 3.03775e-05
21 *1769:A *1769:B 1.85674e-05
22 *1769:A *1832:A1 1.56428e-05
23 *1769:A *1832:A2 5.4155e-06
24 *1769:A *495:18 2.34104e-05
25 *1970:A *492:41 0.0001249
26 *440:8 *492:34 0.000120186
27 *440:25 *441:19 8.42161e-05
28 *440:25 *454:43 4.82919e-05
29 *440:25 *492:34 2.14129e-05
30 *440:25 *513:10 0
31 *440:38 *441:19 5.51245e-05
32 *440:38 *454:10 0
33 *440:38 *454:43 6.77417e-05
34 *440:53 *1614:B 2.05056e-05
35 *440:53 *1685:A2 1.22762e-05
36 *440:53 *1685:B1 4.82863e-05
37 *440:53 *441:19 1.0183e-05
38 *440:53 *441:36 7.21296e-06
39 *440:53 *454:10 0
40 *440:66 *1614:B 0.000122331
41 *440:66 *1614:D 1.85674e-05
42 *440:66 *1684:B 0
43 *440:66 *1685:A2 2.75229e-05
44 *440:66 *1685:B1 3.94429e-05
45 *440:66 *454:19 0
46 *440:75 *1684:B 0
47 *440:75 *474:16 0
48 *440:75 *485:10 3.84331e-05
49 *440:75 *485:12 0.000389993
50 *440:75 *485:14 8.87475e-05
51 *440:75 *485:20 4.31921e-05
52 *440:86 *485:10 1.15688e-05
53 *440:99 *1885:A 3.85835e-05
54 *440:99 *441:61 1.65192e-05
55 *440:99 *441:72 1.59309e-05
56 *1613:B1 *440:38 1.37328e-05
57 *1687:D *440:75 7.75412e-05
58 *1835:A *1833:A 2.49909e-05
59 *1835:A *440:86 0.000152821
60 *1835:A *440:99 5.23362e-05
61 *1992:D *440:8 7.4027e-05
62 *2063:A *440:86 0
63 *2064:A *440:86 0
64 *2064:A *440:99 0
65 *163:8 *440:66 5.92849e-05
66 *163:8 *440:75 7.33465e-05
67 *245:8 *440:86 0.000300109
68 *246:8 *1769:A 9.2741e-05
69 *311:12 *440:99 0.000120186
*RES
1 *1985:Q *440:8 4.98 
2 *440:8 *1970:A 4.74 
3 *440:8 *440:25 5.045 
4 *440:25 *1613:A1 1.6 
5 *440:25 *440:38 5.135 
6 *440:38 *1614:A 4.395 
7 *440:38 *440:53 3.065 
8 *440:53 *1685:A1 1.6 
9 *440:53 *440:66 6.86 
10 *440:66 *1684:A 3.6 
11 *440:66 *440:75 12.855 
12 *440:75 *1768:A 6.12 
13 *440:75 *440:86 5.46 
14 *440:86 *1833:A 4.05 
15 *440:86 *440:99 4.4 
16 *440:99 *1832:B2 1.6 
17 *440:99 *1769:A 7.24 
*END

*D_NET *441 0.00833459
*CONN
*I *1684:D I *D sky130_fd_sc_hd__nand4_4
*I *1683:B I *D sky130_fd_sc_hd__nand2_2
*I *1832:A2 I *D sky130_fd_sc_hd__a22oi_2
*I *1885:A I *D sky130_fd_sc_hd__and3_2
*I *1833:C I *D sky130_fd_sc_hd__and4_2
*I *1768:D I *D sky130_fd_sc_hd__and4_2
*I *1685:B1 I *D sky130_fd_sc_hd__a22o_4
*I *1971:A I *D sky130_fd_sc_hd__and2_2
*I *1986:Q O *D sky130_fd_sc_hd__dfxtp_2
*CAP
1 *1684:D 0
2 *1683:B 0
3 *1832:A2 0.000210268
4 *1885:A 0.000172404
5 *1833:C 3.69588e-05
6 *1768:D 0
7 *1685:B1 0.00017965
8 *1971:A 0
9 *1986:Q 0.000161825
10 *441:72 0.000406287
11 *441:61 0.000289392
12 *441:52 0.000286054
13 *441:46 0.000553289
14 *441:36 0.000595032
15 *441:19 0.000456354
16 *441:10 0.000339549
17 *1685:B1 *1614:B 9.80943e-06
18 *1685:B1 *1614:D 5.05437e-05
19 *1685:B1 *1685:A2 4.99619e-05
20 *1832:A2 *485:80 1.88904e-05
21 *1832:A2 *495:18 0.000192125
22 *1885:A *485:80 2.13396e-05
23 *1885:A *495:10 0.000140905
24 *441:10 *2070:A 0.000321522
25 *441:10 *492:34 0.000321522
26 *441:19 *454:10 0
27 *441:19 *492:34 9.50342e-06
28 *441:19 *513:10 0
29 *441:36 *1685:A2 0
30 *441:46 *1683:A 4.82919e-05
31 *441:46 *474:16 0
32 *441:46 *495:26 6.95335e-05
33 *441:46 *497:14 4.92341e-05
34 *441:52 *474:10 5.84456e-05
35 *441:52 *474:16 4.43871e-06
36 *441:52 *485:12 0.000117825
37 *441:52 *497:14 2.75229e-05
38 *441:61 *474:8 9.9535e-05
39 *441:61 *474:10 2.97561e-05
40 *441:61 *485:10 0.000407465
41 *441:61 *485:12 2.14129e-05
42 *441:61 *485:69 0.000186099
43 *441:61 *485:80 4.9968e-05
44 *441:61 *495:20 0
45 *441:72 *485:80 6.03272e-05
46 *1614:A *1685:B1 8.65961e-05
47 *1767:A *441:46 5.38986e-06
48 *1769:A *1832:A2 5.4155e-06
49 *1770:A1 *441:46 5.05521e-05
50 *1770:A2 *441:61 6.43964e-05
51 *1834:A *1885:A 2.23407e-05
52 *1835:B *1833:C 4.66108e-05
53 *2066:A *1885:A 0
54 *2093:A *441:46 0.000159957
55 *162:8 *441:46 0.00010506
56 *162:17 *441:46 0.000105926
57 *167:10 *441:46 0.000162332
58 *246:8 *1832:A2 1.47347e-05
59 *308:8 *1885:A 2.68721e-05
60 *311:12 *1885:A 0.000168433
61 *420:62 *441:10 6.97118e-05
62 *439:40 *441:19 7.89689e-05
63 *439:40 *441:36 1.71013e-05
64 *439:49 *441:36 8.34348e-05
65 *439:49 *441:46 8.77811e-05
66 *439:66 *441:46 2.88436e-05
67 *439:81 *441:46 0.000575595
68 *440:25 *441:19 8.42161e-05
69 *440:38 *441:19 5.51245e-05
70 *440:53 *1685:B1 4.82863e-05
71 *440:53 *441:19 1.0183e-05
72 *440:53 *441:36 7.21296e-06
73 *440:66 *1685:B1 3.94429e-05
74 *440:99 *1885:A 3.85835e-05
75 *440:99 *441:61 1.65192e-05
76 *440:99 *441:72 1.59309e-05
*RES
1 *1986:Q *441:10 8.415 
2 *441:10 *1971:A 3.6 
3 *441:10 *441:19 3.93 
4 *441:19 *1685:B1 7.545 
5 *441:19 *441:36 2.145 
6 *441:36 *441:46 15.635 
7 *441:46 *441:52 3.83 
8 *441:52 *1768:D 3.6 
9 *441:52 *441:61 7.5 
10 *441:61 *1833:C 4.05 
11 *441:61 *441:72 0.7425 
12 *441:72 *1885:A 8.1375 
13 *441:72 *1832:A2 6.6225 
14 *441:46 *1683:B 1.6 
15 *441:36 *1684:D 3.6 
*END

*D_NET *442 0.00809262
*CONN
*I *1696:A I *D sky130_fd_sc_hd__nand2_2
*I *1607:A I *D sky130_fd_sc_hd__and2_2
*I *1609:D I *D sky130_fd_sc_hd__and4_2
*I *1627:B I *D sky130_fd_sc_hd__and4_2
*I *1610:D I *D sky130_fd_sc_hd__nand4_2
*I *1622:B2 I *D sky130_fd_sc_hd__a22o_2
*I *1675:A2 I *D sky130_fd_sc_hd__a22oi_2
*I *2028:A I *D sky130_fd_sc_hd__dlygate4sd3_1
*I *1989:Q O *D sky130_fd_sc_hd__dfxtp_2
*CAP
1 *1696:A 0.000173691
2 *1607:A 2.51931e-05
3 *1609:D 8.9102e-05
4 *1627:B 0.000293549
5 *1610:D 4.75139e-05
6 *1622:B2 0.000235991
7 *1675:A2 7.95331e-05
8 *2028:A 0.000260065
9 *1989:Q 4.43494e-05
10 *442:88 0.000236396
11 *442:77 0.000567667
12 *442:49 0.000375883
13 *442:36 0.000410919
14 *442:32 0.000741658
15 *442:21 0.000381484
16 *442:8 0.000445869
17 *1609:D *1609:A 5.83121e-06
18 *1609:D *1609:C 4.82919e-05
19 *1609:D *443:81 4.66108e-05
20 *1609:D *443:87 4.66108e-05
21 *1610:D *1610:C 1.52835e-05
22 *1610:D *1675:B1 2.0851e-06
23 *1610:D *443:41 1.37864e-05
24 *1622:B2 *1622:B1 0.000196376
25 *1627:B *1675:B1 0.000197019
26 *1627:B *443:41 8.49205e-05
27 *1627:B *454:56 4.82919e-05
28 *1627:B *497:81 9.80943e-06
29 *1696:A *1696:B 8.40213e-05
30 *1696:A *443:87 0.000164686
31 *1696:A *497:50 0.000156842
32 *2028:A *443:22 0.000130846
33 *2028:A *523:10 1.56428e-05
34 *442:21 *443:22 8.94913e-05
35 *442:21 *444:12 0.000116853
36 *442:32 *1610:C 5.34512e-05
37 *442:32 *1675:B1 0
38 *442:32 *443:22 0.000183299
39 *442:32 *444:12 8.53113e-06
40 *442:32 *506:36 9.82856e-06
41 *442:36 *1622:B1 4.66108e-05
42 *442:36 *443:58 2.16917e-05
43 *442:49 *1610:C 1.80324e-05
44 *442:49 *1622:B1 1.88904e-05
45 *442:49 *443:41 3.23391e-05
46 *442:77 *443:58 1.1561e-05
47 *442:77 *443:87 3.09164e-05
48 *442:77 *444:31 0
49 *442:77 *444:44 0
50 *442:77 *497:50 5.4003e-05
51 *442:77 *497:58 0.000159708
52 *442:77 *497:75 0
53 *442:77 *506:24 0.000155457
54 *442:77 *506:30 0.000132842
55 *442:77 *506:36 0.000404018
56 *442:88 *443:87 0.000137578
57 *442:88 *497:50 0.000131408
58 *1624:A *442:36 2.75145e-05
59 *1624:A *442:77 0.000158297
60 *1624:C *442:36 9.80943e-06
61 *1624:C *442:77 0.000183738
62 *1624:D *442:77 6.34101e-06
63 *1676:B *442:32 0
64 *1788:A1 *1696:A 0
65 *2024:A *2028:A 4.43871e-06
66 *2024:A *442:21 6.71506e-05
67 *101:8 *442:36 1.34503e-05
68 *102:10 *442:32 5.42825e-05
69 *102:10 *442:77 2.86623e-05
70 *172:10 *1607:A 4.66108e-05
71 *418:15 *2028:A 0
72 *418:47 *442:21 0
73 *418:47 *442:32 0
*RES
1 *1989:Q *442:8 4.05 
2 *442:8 *2028:A 8.43 
3 *442:8 *442:21 3.42 
4 *442:21 *1675:A2 4.74 
5 *442:21 *442:32 3.675 
6 *442:32 *442:36 3.83 
7 *442:36 *1622:B2 4.735 
8 *442:36 *442:49 2.87 
9 *442:49 *1610:D 4.215 
10 *442:49 *1627:B 7.5 
11 *442:32 *442:77 12.435 
12 *442:77 *1609:D 5.085 
13 *442:77 *442:88 1.635 
14 *442:88 *1607:A 4.05 
15 *442:88 *1696:A 7.695 
*END

*D_NET *443 0.0125239
*CONN
*I *1973:A I *D sky130_fd_sc_hd__and2_2
*I *1603:B1 I *D sky130_fd_sc_hd__a22o_2
*I *1609:B I *D sky130_fd_sc_hd__and4_2
*I *1701:A I *D sky130_fd_sc_hd__nand4_2
*I *1784:A I *D sky130_fd_sc_hd__nand2_2
*I *1700:A1 I *D sky130_fd_sc_hd__a22o_2
*I *1604:C I *D sky130_fd_sc_hd__and4_2
*I *1605:C I *D sky130_fd_sc_hd__nand4_2
*I *1622:A2 I *D sky130_fd_sc_hd__a22o_2
*I *1610:B I *D sky130_fd_sc_hd__nand4_2
*I *1990:Q O *D sky130_fd_sc_hd__dfxtp_2
*CAP
1 *1973:A 0.000378513
2 *1603:B1 0
3 *1609:B 0
4 *1701:A 0
5 *1784:A 0.000287129
6 *1700:A1 8.31084e-05
7 *1604:C 4.99943e-05
8 *1605:C 0.000119517
9 *1622:A2 1.37452e-05
10 *1610:B 0
11 *1990:Q 0.00042382
12 *443:126 0.000669745
13 *443:112 0.000474047
14 *443:87 0.000399702
15 *443:81 0.000272188
16 *443:62 0.000302347
17 *443:58 0.000425797
18 *443:41 0.000636308
19 *443:22 0.000693841
20 *443:12 0.0012136
21 *1604:C *1604:D 8.23457e-05
22 *1604:C *1607:B 2.39856e-05
23 *1604:C *497:50 4.82863e-05
24 *1605:C *1605:D 3.25635e-05
25 *1605:C *497:58 0.000119756
26 *1605:C *497:71 1.08758e-05
27 *1622:A2 *1622:B1 2.66362e-05
28 *1784:A *445:51 0
29 *1784:A *512:68 0
30 *1973:A *1972:A 8.57563e-05
31 *1973:A *1973:B 0.000125545
32 *1973:A *493:57 7.18795e-06
33 *443:12 *1942:A 8.84437e-05
34 *443:22 *444:12 0.000116853
35 *443:22 *444:31 9.1299e-05
36 *443:22 *494:23 3.89528e-05
37 *443:22 *523:10 7.06865e-05
38 *443:41 *1622:A1 7.12124e-05
39 *443:41 *1622:B1 7.21296e-06
40 *443:41 *497:81 0.000150089
41 *443:58 *1622:B1 0.000112349
42 *443:58 *444:44 0.00015639
43 *443:58 *506:30 4.66108e-05
44 *443:58 *506:36 0.00060787
45 *443:62 *497:71 0.00013521
46 *443:62 *506:24 7.23602e-05
47 *443:62 *506:30 0.000112123
48 *443:81 *506:24 0.000155176
49 *443:87 *1604:D 6.21553e-05
50 *443:87 *1607:B 1.07797e-05
51 *443:87 *1696:B 0.00013521
52 *443:87 *497:50 2.13396e-05
53 *443:87 *506:22 0.000348746
54 *443:87 *506:24 5.16418e-05
55 *443:112 *1607:B 7.09258e-05
56 *443:112 *1696:B 4.96975e-05
57 *1608:B *443:62 0
58 *1608:B *443:81 0
59 *1609:D *443:81 4.66108e-05
60 *1609:D *443:87 4.66108e-05
61 *1610:D *443:41 1.37864e-05
62 *1625:B2 *443:58 0.000163019
63 *1627:B *443:41 8.49205e-05
64 *1696:A *443:87 0.000164686
65 *1700:B1 *1700:A1 4.82919e-05
66 *1700:B1 *1784:A 1.1561e-05
67 *1700:B1 *443:126 4.05358e-05
68 *1700:B2 *1700:A1 2.05056e-05
69 *1700:B2 *1784:A 3.67779e-05
70 *1700:B2 *443:126 3.67779e-05
71 *1701:C *443:126 0.000171845
72 *1702:B *443:112 4.9968e-05
73 *1702:C *443:126 5.99393e-05
74 *1788:A1 *443:112 0
75 *1993:D *1973:A 9.91257e-05
76 *1995:CLK *443:22 0
77 *1995:D *443:22 0
78 *1996:D *443:22 8.97486e-05
79 *2013:A *443:12 4.7072e-06
80 *2028:A *443:22 0.000130846
81 *2041:A *443:12 0
82 *83:12 *443:112 6.30165e-05
83 *83:12 *443:126 4.66108e-05
84 *86:10 *443:81 0
85 *89:20 *443:41 2.94826e-05
86 *101:8 *443:58 0.000124895
87 *102:10 *443:22 7.1009e-05
88 *180:8 *443:112 0
89 *257:10 *443:112 5.67938e-05
90 *257:10 *443:126 0.000106686
91 *416:46 *443:12 7.4027e-05
92 *418:6 *1973:A 6.90876e-05
93 *418:6 *443:12 8.375e-05
94 *418:15 *443:12 6.20667e-05
95 *418:15 *443:22 0
96 *418:31 *443:22 0
97 *418:62 *1973:A 0.000119631
98 *442:21 *443:22 8.94913e-05
99 *442:32 *443:22 0.000183299
100 *442:36 *443:58 2.16917e-05
101 *442:49 *443:41 3.23391e-05
102 *442:77 *443:58 1.1561e-05
103 *442:77 *443:87 3.09164e-05
104 *442:88 *443:87 0.000137578
*RES
1 *1990:Q *443:12 11.405 
2 *443:12 *443:22 14.35 
3 *443:22 *1610:B 1.6 
4 *443:22 *443:41 9.58 
5 *443:41 *1622:A2 1.855 
6 *443:41 *443:58 13.705 
7 *443:58 *443:62 4.145 
8 *443:62 *1605:C 5.805 
9 *443:62 *443:81 4.34 
10 *443:81 *443:87 8.165 
11 *443:87 *1604:C 4.74 
12 *443:87 *443:112 6.32 
13 *443:112 *443:126 7.7 
14 *443:126 *1700:A1 4.755 
15 *443:126 *1784:A 8.295 
16 *443:112 *1701:A 1.6 
17 *443:81 *1609:B 1.6 
18 *443:58 *1603:B1 1.6 
19 *443:12 *1973:A 8.29 
*END

*D_NET *444 0.0117957
*CONN
*I *1605:A I *D sky130_fd_sc_hd__nand4_2
*I *1604:A I *D sky130_fd_sc_hd__and4_2
*I *1698:A I *D sky130_fd_sc_hd__nand4_2
*I *1823:B2 I *D sky130_fd_sc_hd__a22o_2
*I *1782:A I *D sky130_fd_sc_hd__nand2_2
*I *1781:A I *D sky130_fd_sc_hd__and4_2
*I *1699:A1 I *D sky130_fd_sc_hd__a22o_2
*I *1603:A1 I *D sky130_fd_sc_hd__a22o_2
*I *2033:A I *D sky130_fd_sc_hd__dlygate4sd3_1
*I *1991:Q O *D sky130_fd_sc_hd__dfxtp_2
*CAP
1 *1605:A 0.00012275
2 *1604:A 0
3 *1698:A 6.79872e-05
4 *1823:B2 0.000150729
5 *1782:A 0
6 *1781:A 0
7 *1699:A1 0.000118009
8 *1603:A1 0
9 *2033:A 0
10 *1991:Q 0.000648949
11 *444:100 0.000161007
12 *444:76 0.00043934
13 *444:67 0.000791836
14 *444:52 0.000922961
15 *444:44 0.00116264
16 *444:38 0.000929599
17 *444:31 0.000534743
18 *444:12 0.00114473
19 *1605:A *1603:A2 1.4498e-05
20 *1605:A *497:71 6.10014e-05
21 *1698:A *1604:B 0.000163199
22 *1698:A *497:25 0
23 *1699:A1 *1699:A2 6.52393e-05
24 *1699:A1 *1699:B1 3.4437e-05
25 *1823:B2 *1823:A1 0.000210151
26 *444:12 *1975:A 5.34747e-05
27 *444:12 *1975:B 0.000274659
28 *444:12 *445:12 9.45966e-05
29 *444:12 *445:23 2.75145e-05
30 *444:31 *497:75 0.000670342
31 *444:44 *445:23 0
32 *444:44 *497:50 0
33 *444:44 *497:58 0
34 *444:52 *506:20 0.000457914
35 *444:67 *506:12 0.000869448
36 *444:67 *506:20 3.09233e-05
37 *444:76 *1823:A1 5.33085e-05
38 *444:76 *506:10 0.000332737
39 *444:76 *506:12 0.000101822
40 *444:100 *445:23 0
41 *1606:B *1605:A 3.18219e-05
42 *1608:B *1605:A 5.53249e-06
43 *1624:D *444:31 0.000210151
44 *1706:A2 *1605:A 5.12017e-06
45 *1783:A2 *444:76 3.94692e-05
46 *1915:B *1823:B2 4.94474e-05
47 *82:8 *444:31 0
48 *102:10 *444:31 0.000223019
49 *177:10 *1698:A 3.07153e-05
50 *243:14 *444:52 0
51 *243:14 *444:67 0
52 *442:21 *444:12 0.000116853
53 *442:32 *444:12 8.53113e-06
54 *442:77 *444:31 0
55 *442:77 *444:44 0
56 *443:22 *444:12 0.000116853
57 *443:22 *444:31 9.1299e-05
58 *443:58 *444:44 0.00015639
*RES
1 *1991:Q *444:12 14.675 
2 *444:12 *2033:A 1.6 
3 *444:12 *444:31 16.015 
4 *444:31 *1603:A1 1.6 
5 *444:31 *444:38 0.615 
6 *444:38 *444:44 13.22 
7 *444:44 *444:52 10.315 
8 *444:52 *1699:A1 5.19 
9 *444:52 *444:67 11.1 
10 *444:67 *1781:A 3.6 
11 *444:67 *444:76 6.48 
12 *444:76 *1782:A 3.6 
13 *444:76 *1823:B2 6.9 
14 *444:44 *444:100 3.38 
15 *444:100 *1698:A 3.445 
16 *444:100 *1604:A 1.6 
17 *444:38 *1605:A 7.775 
*END

*D_NET *445 0.0101435
*CONN
*I *1879:A I *D sky130_fd_sc_hd__and3_2
*I *1823:A2 I *D sky130_fd_sc_hd__a22o_2
*I *1824:A I *D sky130_fd_sc_hd__nand2_2
*I *1697:B I *D sky130_fd_sc_hd__nand2_2
*I *1781:D I *D sky130_fd_sc_hd__and4_2
*I *1698:D I *D sky130_fd_sc_hd__nand4_2
*I *1699:B1 I *D sky130_fd_sc_hd__a22o_2
*I *2030:A I *D sky130_fd_sc_hd__dlygate4sd3_1
*I *1992:Q O *D sky130_fd_sc_hd__dfxtp_2
*CAP
1 *1879:A 0
2 *1823:A2 0
3 *1824:A 8.98174e-05
4 *1697:B 0
5 *1781:D 0
6 *1698:D 1.31251e-05
7 *1699:B1 5.88307e-05
8 *2030:A 0
9 *1992:Q 0.000180369
10 *445:87 0.000263634
11 *445:73 0.000629605
12 *445:58 0.000491702
13 *445:51 0.000471325
14 *445:27 0.000127917
15 *445:23 0.00156412
16 *445:12 0.00125311
17 *1698:D *1699:A2 1.4555e-05
18 *1698:D *497:25 0
19 *1699:B1 *1699:A2 0.000124444
20 *1699:B1 *497:25 0.000255578
21 *1824:A *1823:A1 9.50342e-06
22 *1824:A *1823:B1 3.27494e-05
23 *445:23 *1622:A1 0
24 *445:23 *1675:A1 0
25 *445:23 *1968:B 0.000180675
26 *445:23 *506:12 1.70935e-05
27 *445:23 *506:20 6.28843e-05
28 *445:27 *1699:A2 3.96653e-05
29 *445:27 *497:25 0.000158066
30 *445:51 *506:12 0.000450379
31 *445:58 *1697:A 0.000238137
32 *445:58 *512:68 0.000238137
33 *445:73 *1697:A 4.66108e-05
34 *445:73 *1781:C 0
35 *445:73 *1823:A1 0
36 *445:73 *512:33 0
37 *445:73 *512:68 3.74161e-05
38 *445:73 *514:14 0.000105161
39 *445:87 *1823:B1 5.12719e-05
40 *445:87 *1824:B 2.7881e-05
41 *445:87 *514:51 8.65961e-05
42 *1619:B *445:23 2.05661e-05
43 *1620:A *445:23 0.000186099
44 *1627:D *445:23 4.9968e-05
45 *1694:A *445:23 0.000118513
46 *1694:B *445:23 1.94723e-05
47 *1699:A1 *1699:B1 3.4437e-05
48 *1700:B1 *445:51 5.50989e-05
49 *1783:A1 *445:51 5.16418e-05
50 *1783:B1 *445:73 0
51 *1784:A *445:51 0
52 *1785:A *445:73 8.71001e-05
53 *1825:A2 *1824:A 0.00015997
54 *1825:A2 *445:73 0
55 *1825:B1 *445:73 0
56 *1826:A2 *445:51 0
57 *1826:A2 *445:73 0.000159964
58 *1915:B *1824:A 3.10739e-05
59 *1915:B *445:73 3.66286e-05
60 *1915:B *445:87 0.00030231
61 *1989:D *445:23 0
62 *91:12 *445:23 0.000186099
63 *98:8 *445:23 0.00047601
64 *98:19 *445:23 0.000208491
65 *171:10 *445:23 0
66 *176:8 *445:23 2.97004e-06
67 *176:8 *445:51 7.16263e-05
68 *259:34 *445:73 0.000183036
69 *260:10 *445:73 7.07801e-05
70 *438:10 *445:12 4.92047e-05
71 *438:10 *445:23 4.19967e-05
72 *438:42 *445:23 9.79559e-05
73 *439:19 *445:12 0
74 *444:12 *445:12 9.45966e-05
75 *444:12 *445:23 2.75145e-05
76 *444:44 *445:23 0
77 *444:100 *445:23 0
*RES
1 *1992:Q *445:12 9.065 
2 *445:12 *2030:A 1.6 
3 *445:12 *445:23 24.995 
4 *445:23 *445:27 3.485 
5 *445:27 *1699:B1 4.135 
6 *445:27 *1698:D 1.96 
7 *445:23 *445:51 12.86 
8 *445:51 *1781:D 1.6 
9 *445:51 *445:58 2.175 
10 *445:58 *1697:B 1.6 
11 *445:58 *445:73 13.42 
12 *445:73 *445:87 7.855 
13 *445:87 *1824:A 7.79 
14 *445:87 *1823:A2 1.6 
15 *445:73 *1879:A 1.6 
*END

*D_NET *446 0.00837956
*CONN
*I *1649:A I *D sky130_fd_sc_hd__nand2_2
*I *1737:A I *D sky130_fd_sc_hd__and2_2
*I *1654:D I *D sky130_fd_sc_hd__nand4_2
*I *1678:B I *D sky130_fd_sc_hd__and3_2
*I *1666:B2 I *D sky130_fd_sc_hd__a22o_2
*I *1653:D I *D sky130_fd_sc_hd__and4_2
*I *1934:A2 I *D sky130_fd_sc_hd__a21oi_2
*I *2032:A I *D sky130_fd_sc_hd__dlygate4sd3_1
*I *1993:Q O *D sky130_fd_sc_hd__dfxtp_2
*CAP
1 *1649:A 8.46321e-05
2 *1737:A 0.000580859
3 *1654:D 9.72979e-05
4 *1678:B 0.000193709
5 *1666:B2 2.71379e-05
6 *1653:D 0.000361828
7 *1934:A2 0
8 *2032:A 4.10161e-05
9 *1993:Q 7.96014e-05
10 *446:87 0.00102732
11 *446:54 0.000498234
12 *446:38 0.000168626
13 *446:30 0.000383223
14 *446:23 0.000649027
15 *446:8 0.000735137
16 *1654:D *1654:A 4.82919e-05
17 *1654:D *2072:A 8.65905e-05
18 *1666:B2 *1666:A1 0.000150081
19 *1666:B2 *455:60 0.000186986
20 *1666:B2 *519:91 4.77807e-05
21 *1678:B *1678:A 0
22 *1737:A *1648:A2 7.32222e-05
23 *1737:A *1648:B1 7.67415e-06
24 *1737:A *1871:B 1.29826e-05
25 *1737:A *455:34 2.76356e-05
26 *1737:A *455:49 1.56428e-05
27 *1737:A *466:42 4.82916e-05
28 *2032:A *1978:A 0.000141606
29 *2032:A *448:14 5.92849e-05
30 *446:38 *1653:B 3.24882e-05
31 *446:38 *1934:A1 0.000435184
32 *446:38 *447:31 0.000271121
33 *446:38 *450:10 0.000187113
34 *446:38 *455:49 8.53011e-05
35 *446:38 *455:60 4.77769e-05
36 *446:38 *519:91 0.000148919
37 *446:87 *2072:A 0.000628421
38 *446:87 *455:60 4.66108e-05
39 *1651:B1_N *1649:A 0
40 *1678:C *1678:B 1.4399e-05
41 *1935:A *1678:B 8.44359e-05
42 *1935:B *446:54 0.000106145
43 *127:8 *1649:A 0.000283792
44 *156:8 *1678:B 0
45 *215:6 *1649:A 0.000125284
46 *215:6 *1737:A 4.88541e-05
47 *383:12 *446:38 0
*RES
1 *1993:Q *446:8 2.755 
2 *446:8 *2032:A 7.235 
3 *446:8 *446:23 8.31 
4 *446:23 *1934:A2 1.6 
5 *446:23 *446:30 0.45 
6 *446:30 *446:38 10.39 
7 *446:38 *1653:D 1.6 
8 *446:38 *1666:B2 3.43 
9 *446:30 *446:54 3.57 
10 *446:54 *1678:B 8.705 
11 *446:54 *1654:D 3.43 
12 *1653:D *446:87 13.55 
13 *446:87 *1737:A 9.25 
14 *446:87 *1649:A 4.825 
*END

*D_NET *447 0.0115098
*CONN
*I *1653:B I *D sky130_fd_sc_hd__and4_2
*I *1666:A2 I *D sky130_fd_sc_hd__a22o_2
*I *1654:B I *D sky130_fd_sc_hd__nand4_2
*I *1648:B1 I *D sky130_fd_sc_hd__a22o_2
*I *1733:C I *D sky130_fd_sc_hd__and4bb_2
*I *1732:A1_N I *D sky130_fd_sc_hd__o2bb2a_2
*I *1646:B I *D sky130_fd_sc_hd__and3_2
*I *1755:A1 I *D sky130_fd_sc_hd__a21oi_2
*I *1756:A I *D sky130_fd_sc_hd__and3_2
*I *1977:A I *D sky130_fd_sc_hd__and2_2
*I *1994:Q O *D sky130_fd_sc_hd__dfxtp_2
*CAP
1 *1653:B 9.33551e-05
2 *1666:A2 7.1334e-05
3 *1654:B 8.56461e-05
4 *1648:B1 3.0848e-05
5 *1733:C 0
6 *1732:A1_N 8.23272e-05
7 *1646:B 0
8 *1755:A1 2.08101e-05
9 *1756:A 0.000353469
10 *1977:A 0.000270309
11 *1994:Q 0.000486086
12 *447:113 0.000453964
13 *447:80 0.000254865
14 *447:69 0.000364974
15 *447:43 0.000756865
16 *447:37 0.000706412
17 *447:35 0.000465337
18 *447:33 0.000600083
19 *447:31 0.000422937
20 *447:16 0.00108598
21 *1648:B1 *1648:A2 1.08758e-05
22 *1648:B1 *455:34 4.66108e-05
23 *1648:B1 *455:49 3.74161e-05
24 *1653:B *455:49 4.77807e-05
25 *1654:B *1654:C 0.000160658
26 *1666:A2 *1666:A1 7.02973e-05
27 *1732:A1_N *1732:A2_N 0.000190418
28 *1756:A *1756:B 6.55406e-05
29 *1756:A *2071:A 4.05674e-06
30 *1977:A *449:19 0
31 *1977:A *450:10 0
32 *447:16 *448:14 7.1624e-05
33 *447:31 *450:10 0.000272899
34 *447:35 *1653:A 0.000670355
35 *447:35 *455:34 2.14129e-05
36 *447:37 *1653:A 0.000112123
37 *447:37 *455:10 0.000134516
38 *447:37 *455:34 0.000136182
39 *447:37 *519:38 8.89019e-05
40 *447:43 *1731:A1 0.000277223
41 *447:43 *519:38 0.000101325
42 *447:69 *455:10 0.000197269
43 *447:69 *465:61 9.30673e-05
44 *447:80 *1649:B 7.30547e-05
45 *447:80 *1732:A2_N 2.14129e-05
46 *447:80 *465:63 0.00013521
47 *447:113 *1653:A 2.85623e-05
48 *447:113 *1666:A1 0.000237249
49 *447:113 *1934:A1 4.82919e-05
50 *447:113 *2072:A 0
51 *447:113 *519:91 0.000198934
52 *1646:C *447:69 0.000239813
53 *1646:C *447:80 3.96653e-05
54 *1731:B1 *447:43 2.0514e-05
55 *1732:B1 *1732:A1_N 0.000120436
56 *1732:B1 *447:80 1.70935e-05
57 *1734:B *1732:A1_N 0
58 *1737:A *1648:B1 7.67415e-06
59 *1997:CLK *447:16 3.33839e-05
60 *1997:D *447:16 9.49961e-05
61 *2049:A *447:43 0.000139252
62 *124:10 *447:37 0
63 *124:10 *447:43 0
64 *132:6 *1666:A2 1.621e-05
65 *145:12 *1654:B 0
66 *208:10 *447:80 0.00010501
67 *215:6 *1648:B1 0.000120655
68 *229:22 *447:35 0
69 *383:12 *447:35 6.24428e-05
70 *383:12 *447:113 3.01536e-05
71 *446:38 *1653:B 3.24882e-05
72 *446:38 *447:31 0.000271121
*RES
1 *1994:Q *447:16 11.87 
2 *447:16 *1977:A 10.04 
3 *447:16 *447:31 6.675 
4 *447:31 *447:33 2 
5 *447:33 *447:35 8.01 
6 *447:35 *447:37 3.42 
7 *447:37 *447:43 9.08 
8 *447:43 *1756:A 10.88 
9 *447:43 *1755:A1 1.96 
10 *447:37 *447:69 6.605 
11 *447:69 *1646:B 1.6 
12 *447:69 *447:80 5.45 
13 *447:80 *1732:A1_N 6.4575 
14 *447:80 *1733:C 3.6 
15 *447:35 *1648:B1 4.74 
16 *447:33 *447:113 7.37 
17 *447:113 *1654:B 7.49 
18 *447:113 *1666:A2 3.13375 
19 *447:31 *1653:B 2.74 
*END

*D_NET *448 0.00662802
*CONN
*I *2047:A I *D sky130_fd_sc_hd__dlygate4sd3_1
*I *1856:B2 I *D sky130_fd_sc_hd__a22o_2
*I *1753:A I *D sky130_fd_sc_hd__nand2_2
*I *1648:A1 I *D sky130_fd_sc_hd__a22o_2
*I *1645:A I *D sky130_fd_sc_hd__and2_4
*I *1995:Q O *D sky130_fd_sc_hd__dfxtp_2
*CAP
1 *2047:A 0.00016553
2 *1856:B2 0
3 *1753:A 0
4 *1648:A1 0.000108885
5 *1645:A 1.85694e-05
6 *1995:Q 0.000233399
7 *448:34 0.000445885
8 *448:28 0.00065476
9 *448:14 0.00113258
10 *448:8 0.00119518
11 *1645:A *1729:A 9.53428e-06
12 *1648:A1 *1648:A2 0.000112123
13 *1648:A1 *1730:B 0.000111461
14 *1648:A1 *2072:A 0.000180689
15 *1648:A1 *519:38 3.57924e-05
16 *2047:A *1978:A 0
17 *2047:A *494:45 0.000124895
18 *448:14 *1976:B 0
19 *448:14 *1978:A 0
20 *448:28 *1856:A1 7.76103e-05
21 *448:28 *1856:A2 6.409e-05
22 *448:28 *1856:B1 5.3773e-05
23 *448:34 *1729:A 0.000387896
24 *448:34 *1729:B 2.18022e-05
25 *448:34 *1730:B 0.000496
26 *448:34 *465:24 0.00015639
27 *1754:A1 *448:34 0.000120655
28 *1757:B *448:34 2.16917e-05
29 *1858:A2 *448:28 0.000133739
30 *1858:B1 *448:28 1.8486e-05
31 *1994:CLK *448:14 0
32 *2012:D *448:14 4.28112e-06
33 *2017:A *448:8 3.31103e-05
34 *2032:A *448:14 5.92849e-05
35 *230:23 *448:34 9.80032e-06
36 *233:8 *448:34 5.16418e-05
37 *233:23 *448:28 8.75607e-05
38 *234:30 *1648:A1 9.02259e-05
39 *234:30 *448:34 1.4174e-05
40 *422:14 *2047:A 7.49327e-05
41 *422:24 *2047:A 4.99619e-05
42 *422:24 *448:14 0
43 *422:26 *448:14 0
44 *422:28 *448:14 0
45 *447:16 *448:14 7.1624e-05
*RES
1 *1995:Q *448:8 6.81 
2 *448:8 *448:14 14.975 
3 *448:14 *448:28 9.47 
4 *448:28 *448:34 10.31 
5 *448:34 *1645:A 1.96 
6 *448:34 *1648:A1 9.23 
7 *448:28 *1753:A 3.6 
8 *448:14 *1856:B2 1.6 
9 *448:8 *2047:A 7.14 
*END

*D_NET *449 0.00851387
*CONN
*I *1857:A I *D sky130_fd_sc_hd__nand2_2
*I *1871:A I *D sky130_fd_sc_hd__and3_2
*I *1729:B I *D sky130_fd_sc_hd__nand2_2
*I *1730:B I *D sky130_fd_sc_hd__and3_2
*I *1752:B I *D sky130_fd_sc_hd__and3_2
*I *1731:A2 I *D sky130_fd_sc_hd__a21oi_2
*I *1856:A2 I *D sky130_fd_sc_hd__a22o_2
*I *2031:A I *D sky130_fd_sc_hd__dlygate4sd3_1
*I *1996:Q O *D sky130_fd_sc_hd__dfxtp_2
*CAP
1 *1857:A 6.81858e-05
2 *1871:A 0
3 *1729:B 4.74877e-05
4 *1730:B 0.000416295
5 *1752:B 4.8216e-05
6 *1731:A2 5.68918e-05
7 *1856:A2 3.71331e-05
8 *2031:A 0
9 *1996:Q 0.000332808
10 *449:56 0.000219724
11 *449:50 0.000563511
12 *449:48 0.000278249
13 *449:40 0.000337873
14 *449:23 0.000289933
15 *449:19 0.000804453
16 *449:8 0.000955987
17 *1729:B *1729:A 3.70488e-05
18 *1731:A2 *465:12 0.000185405
19 *1731:A2 *466:38 7.21296e-06
20 *1752:B *465:48 3.57349e-05
21 *1856:A2 *1856:B1 2.77324e-05
22 *1856:A2 *466:52 0.000109613
23 *449:8 *1979:A 8.65905e-05
24 *449:19 *1976:A 0.000467979
25 *449:19 *1977:B 0.000235573
26 *449:23 *1857:B 9.12857e-06
27 *449:23 *466:52 6.54361e-06
28 *449:40 *466:52 0.000239834
29 *449:48 *466:38 9.14049e-05
30 *449:48 *466:42 5.05437e-05
31 *449:48 *466:52 7.68414e-06
32 *449:50 *466:38 9.37731e-05
33 *449:56 *465:24 0.000122331
34 *449:56 *465:48 4.66108e-05
35 *449:56 *466:38 9.37731e-05
36 *1648:A1 *1730:B 0.000111461
37 *1731:B1 *1731:A2 0.000140912
38 *1754:A1 *1729:B 5.83121e-06
39 *1757:A *449:50 6.45236e-05
40 *1757:A *449:56 9.71067e-05
41 *1858:A1 *449:40 8.65961e-05
42 *1858:A1 *449:48 4.89503e-05
43 *1858:A2 *1857:A 4.66108e-05
44 *1858:A2 *449:23 0.000133329
45 *1858:A2 *449:40 4.58262e-06
46 *1858:B1 *1856:A2 2.39856e-05
47 *1908:A1 *449:40 0
48 *1908:B1 *1857:A 1.08758e-05
49 *1977:A *449:19 0
50 *1999:D *449:19 0
51 *124:10 *1731:A2 6.52111e-05
52 *230:23 *449:48 3.18137e-05
53 *230:23 *449:50 2.97004e-06
54 *233:23 *449:40 0.000250823
55 *234:30 *1729:B 0.000153344
56 *422:65 *449:8 0.000119631
57 *422:67 *449:8 0.000122155
58 *448:28 *1856:A2 6.409e-05
59 *448:34 *1729:B 2.18022e-05
60 *448:34 *1730:B 0.000496
*RES
1 *1996:Q *449:8 7.585 
2 *449:8 *2031:A 1.6 
3 *449:8 *449:19 14.165 
4 *449:19 *449:23 4.145 
5 *449:23 *1856:A2 2.89 
6 *449:23 *449:40 8.245 
7 *449:40 *449:48 5.315 
8 *449:48 *449:50 1.125 
9 *449:50 *449:56 4.61 
10 *449:56 *1731:A2 8 
11 *449:56 *1752:B 2.41 
12 *449:50 *1730:B 9.225 
13 *449:48 *1729:B 5.1 
14 *449:40 *1871:A 1.6 
15 *449:19 *1857:A 4.755 
*END

*D_NET *450 0.00544323
*CONN
*I *1720:A I *D sky130_fd_sc_hd__and2_2
*I *1634:A I *D sky130_fd_sc_hd__nand2_2
*I *1663:B2 I *D sky130_fd_sc_hd__a22oi_2
*I *1639:D I *D sky130_fd_sc_hd__and4_2
*I *1638:B I *D sky130_fd_sc_hd__nand2_2
*I *1679:A2 I *D sky130_fd_sc_hd__a31oi_2
*I *1997:Q O *D sky130_fd_sc_hd__dfxtp_2
*CAP
1 *1720:A 0.000177178
2 *1634:A 3.73256e-05
3 *1663:B2 0
4 *1639:D 0
5 *1638:B 2.2266e-05
6 *1679:A2 0
7 *1997:Q 0.000440887
8 *450:64 0.000513097
9 *450:51 0.000415314
10 *450:38 0.000335616
11 *450:19 0.000403738
12 *450:10 0.000603464
13 *1634:A *469:8 2.30292e-05
14 *1638:B *1638:A 4.82919e-05
15 *1720:A *1720:B 1.22676e-05
16 *1720:A *1807:A1 0
17 *1720:A *467:86 0
18 *450:10 *1934:A1 1.26626e-05
19 *450:19 *1679:A1 0.000142798
20 *450:38 *1639:B 9.66106e-05
21 *450:38 *1639:C 1.91597e-05
22 *450:38 *1679:A1 1.0183e-05
23 *450:38 *451:10 0.000139245
24 *450:51 *1639:C 0.000111176
25 *450:51 *467:49 7.21296e-06
26 *450:51 *468:80 5.53249e-06
27 *450:64 *467:60 4.24292e-06
28 *450:64 *467:86 0
29 *450:64 *468:80 7.07801e-05
30 *1636:A1 *450:64 0.000136877
31 *1664:B *450:51 0.000139252
32 *1664:B *450:64 3.25831e-05
33 *1677:A *450:19 8.08439e-05
34 *1679:A3 *450:19 0
35 *1719:A *1720:A 0
36 *1977:A *450:10 0
37 *2082:A *450:64 0
38 *112:10 *450:64 0.000181204
39 *113:14 *1634:A 4.82863e-05
40 *113:14 *450:64 9.52156e-05
41 *118:8 *450:51 4.99619e-05
42 *141:14 *450:38 0.000235568
43 *141:14 *450:51 3.7712e-05
44 *155:12 *450:19 0
45 *155:12 *450:38 0
46 *188:10 *1720:A 0.000197269
47 *189:16 *1720:A 9.63694e-05
48 *383:12 *1720:A 0
49 *383:12 *450:10 0
50 *383:12 *450:19 0
51 *383:12 *450:38 0
52 *446:38 *450:10 0.000187113
53 *447:31 *450:10 0.000272899
*RES
1 *1997:Q *450:10 10.815 
2 *450:10 *1679:A2 3.6 
3 *450:10 *450:19 4.185 
4 *450:19 *1638:B 4.05 
5 *450:19 *450:38 7.13 
6 *450:38 *1639:D 1.6 
7 *450:38 *450:51 5.135 
8 *450:51 *1663:B2 3.6 
9 *450:51 *450:64 7.035 
10 *450:64 *1634:A 4.395 
11 *450:64 *1720:A 7.575 
*END

*D_NET *451 0.00575406
*CONN
*I *1801:A1 I *D sky130_fd_sc_hd__a21oi_2
*I *1717:A I *D sky130_fd_sc_hd__and3_2
*I *1802:A I *D sky130_fd_sc_hd__and3_2
*I *1716:A I *D sky130_fd_sc_hd__nand2_2
*I *1631:C I *D sky130_fd_sc_hd__and4_2
*I *1633:B1 I *D sky130_fd_sc_hd__a22o_2
*I *1663:A2 I *D sky130_fd_sc_hd__a22oi_2
*I *1639:B I *D sky130_fd_sc_hd__and4_2
*I *1998:Q O *D sky130_fd_sc_hd__dfxtp_2
*CAP
1 *1801:A1 0.000101812
2 *1717:A 5.7272e-05
3 *1802:A 6.74309e-05
4 *1716:A 2.6463e-05
5 *1631:C 0
6 *1633:B1 0
7 *1663:A2 1.71066e-05
8 *1639:B 0.000139625
9 *1998:Q 0.000244354
10 *451:73 0.000124703
11 *451:71 0.000172151
12 *451:60 0.000399494
13 *451:45 0.000373929
14 *451:32 0.000200275
15 *451:21 0.000231214
16 *451:10 0.000469048
17 *1716:A *1717:B 1.91597e-05
18 *1716:A *469:22 1.16578e-05
19 *1801:A1 *469:32 5.12017e-06
20 *451:10 *1638:A 2.75145e-05
21 *451:10 *453:10 5.47609e-05
22 *451:21 *453:10 5.92191e-05
23 *451:32 *452:10 8.71001e-05
24 *451:32 *453:10 0.000121094
25 *451:45 *452:10 1.89685e-05
26 *451:45 *452:23 4.5783e-05
27 *451:45 *452:36 0
28 *451:45 *453:10 6.18754e-05
29 *451:60 *1631:B 0.000124007
30 *451:60 *1713:A 3.72476e-05
31 *451:60 *1714:B2 0.000116158
32 *451:60 *452:23 1.71013e-05
33 *451:60 *452:32 0.000100998
34 *451:60 *469:16 0.0004706
35 *451:60 *469:32 2.97004e-06
36 *451:71 *469:32 8.98743e-05
37 *1715:B *451:60 0.000143266
38 *1802:C *1801:A1 0.000120186
39 *1803:A *1801:A1 1.08758e-05
40 *108:27 *1663:A2 5.05521e-05
41 *109:14 *1663:A2 8.65961e-05
42 *110:6 *451:60 5.83121e-06
43 *141:14 *1639:B 1.19928e-05
44 *155:12 *451:10 0
45 *191:10 *451:60 2.76107e-05
46 *191:23 *1717:A 0.000106078
47 *191:23 *1802:A 7.10578e-05
48 *191:23 *451:60 6.01819e-05
49 *275:10 *1801:A1 4.38278e-05
50 *279:10 *1717:A 0.000160641
51 *383:12 *1801:A1 0.00013994
52 *383:12 *451:10 0
53 *383:12 *451:32 0
54 *383:12 *451:60 0.000155942
55 *383:12 *451:71 0.000227543
56 *450:38 *1639:B 9.66106e-05
57 *450:38 *451:10 0.000139245
*RES
1 *1998:Q *451:10 7.23 
2 *451:10 *1639:B 5.43 
3 *451:10 *451:21 1.38 
4 *451:21 *1663:A2 4.395 
5 *451:21 *451:32 2.655 
6 *451:32 *1633:B1 3.6 
7 *451:32 *451:45 3.83 
8 *451:45 *1631:C 1.6 
9 *451:45 *451:60 12.215 
10 *451:60 *1716:A 4.05 
11 *451:60 *451:71 2.655 
12 *451:71 *451:73 2 
13 *451:73 *1802:A 2.74 
14 *451:73 *1717:A 3.43 
15 *451:71 *1801:A1 6.375 
*END

*D_NET *452 0.00624615
*CONN
*I *1713:A I *D sky130_fd_sc_hd__and4_2
*I *1799:A I *D sky130_fd_sc_hd__nand2_2
*I *1846:B2 I *D sky130_fd_sc_hd__a22o_2
*I *1798:A I *D sky130_fd_sc_hd__and4_2
*I *1714:A1 I *D sky130_fd_sc_hd__a22oi_2
*I *1631:D I *D sky130_fd_sc_hd__and4_2
*I *1633:A1 I *D sky130_fd_sc_hd__a22o_2
*I *1999:Q O *D sky130_fd_sc_hd__dfxtp_2
*CAP
1 *1713:A 0.000148862
2 *1799:A 2.8765e-05
3 *1846:B2 0.000181413
4 *1798:A 8.68591e-05
5 *1714:A1 5.90959e-05
6 *1631:D 0
7 *1633:A1 6.26927e-05
8 *1999:Q 0.000322766
9 *452:62 0.000283061
10 *452:51 0.000375411
11 *452:36 0.000394945
12 *452:32 0.000349767
13 *452:23 0.000148516
14 *452:10 0.000453249
15 *1633:A1 *468:14 5.35969e-06
16 *1713:A *1713:B 0.000230429
17 *1713:A *1713:C 4.82919e-05
18 *1714:A1 *1714:B1 1.05307e-05
19 *1714:A1 *453:38 8.7373e-06
20 *1799:A *453:73 0.000109989
21 *1846:B2 *1846:A1 4.00541e-06
22 *1846:B2 *1846:B1 0.000120655
23 *1846:B2 *470:24 0
24 *452:23 *453:10 0
25 *452:32 *453:10 0
26 *452:36 *453:10 2.01541e-05
27 *452:36 *453:21 0.000134509
28 *452:36 *453:38 3.76625e-05
29 *452:51 *453:38 0.000358675
30 *452:51 *469:32 7.34286e-05
31 *452:51 *469:42 9.37731e-05
32 *452:62 *453:62 1.86911e-05
33 *452:62 *453:73 4.9968e-05
34 *452:62 *469:42 0.000107634
35 *1800:A1 *1798:A 0.00015806
36 *1800:A1 *452:51 1.52184e-05
37 *1800:A1 *452:62 5.73518e-05
38 *1802:C *452:51 0
39 *1848:B1 *1799:A 0.00011852
40 *1848:B1 *452:62 9.77943e-05
41 *108:27 *452:10 0.000312964
42 *188:10 *1714:A1 4.82919e-05
43 *189:16 *1714:A1 1.47256e-05
44 *191:10 *1713:A 7.58604e-05
45 *191:10 *452:36 0.000178314
46 *191:10 *452:51 0.000187071
47 *191:23 *452:51 0.000336765
48 *273:12 *1846:B2 1.0124e-05
49 *383:12 *452:10 0
50 *451:32 *452:10 8.71001e-05
51 *451:45 *452:10 1.89685e-05
52 *451:45 *452:23 4.5783e-05
53 *451:45 *452:36 0
54 *451:60 *1713:A 3.72476e-05
55 *451:60 *452:23 1.71013e-05
56 *451:60 *452:32 0.000100998
*RES
1 *1999:Q *452:10 8.61 
2 *452:10 *1633:A1 4.41 
3 *452:10 *452:23 1.38 
4 *452:23 *1631:D 3.6 
5 *452:23 *452:32 2.0175 
6 *452:32 *452:36 3.3225 
7 *452:36 *1714:A1 4.86 
8 *452:36 *452:51 8.52 
9 *452:51 *1798:A 5.085 
10 *452:51 *452:62 2.4 
11 *452:62 *1846:B2 6.045 
12 *452:62 *1799:A 4.98 
13 *452:32 *1713:A 7.2075 
*END

*D_NET *453 0.00637013
*CONN
*I *1847:A I *D sky130_fd_sc_hd__nand2_2
*I *1895:A I *D sky130_fd_sc_hd__and3_2
*I *1846:A2 I *D sky130_fd_sc_hd__a22o_2
*I *1798:D I *D sky130_fd_sc_hd__and4_2
*I *1712:B I *D sky130_fd_sc_hd__nand2_2
*I *1714:B1 I *D sky130_fd_sc_hd__a22oi_2
*I *1713:D I *D sky130_fd_sc_hd__and4_2
*I *2000:Q O *D sky130_fd_sc_hd__dfxtp_2
*CAP
1 *1847:A 0.000172963
2 *1895:A 3.61853e-05
3 *1846:A2 3.0334e-06
4 *1798:D 3.18142e-05
5 *1712:B 0.000136274
6 *1714:B1 3.75912e-05
7 *1713:D 0
8 *2000:Q 0.000478545
9 *453:73 0.000367645
10 *453:62 0.000314843
11 *453:40 0.000168088
12 *453:38 0.000417346
13 *453:21 0.000395513
14 *453:10 0.000572434
15 *1712:B *1712:A 8.65905e-05
16 *1712:B *1798:B 8.49205e-05
17 *1798:D *469:32 2.49909e-05
18 *1846:A2 *1846:B1 1.2818e-05
19 *1846:A2 *469:42 1.16578e-05
20 *1847:A *1847:B 5.55927e-05
21 *453:10 *468:20 0.00011741
22 *453:10 *468:31 9.05377e-05
23 *453:10 *468:42 4.43871e-06
24 *453:21 *468:42 4.5371e-05
25 *453:38 *1712:A 2.59981e-05
26 *453:38 *468:42 1.31475e-05
27 *453:38 *468:51 0.000382863
28 *453:38 *469:42 4.9968e-05
29 *453:62 *1799:B 3.09233e-05
30 *453:62 *469:42 0.000157602
31 *453:73 *1799:B 8.34348e-05
32 *1682:B1_N *453:10 0
33 *1714:A1 *1714:B1 1.05307e-05
34 *1714:A1 *453:38 8.7373e-06
35 *1799:A *453:73 0.000109989
36 *1800:A1 *1712:B 3.63661e-05
37 *1800:A1 *1798:D 8.23457e-05
38 *1848:A1 *1847:A 4.82863e-05
39 *1848:B1 *1847:A 6.36656e-05
40 *1848:B1 *453:73 0.000127181
41 *141:14 *453:10 0.000180207
42 *155:12 *453:10 0.000316415
43 *188:10 *1714:B1 1.19928e-05
44 *189:16 *1714:B1 4.66108e-05
45 *273:12 *1846:A2 6.51782e-07
46 *451:10 *453:10 5.47609e-05
47 *451:21 *453:10 5.92191e-05
48 *451:32 *453:10 0.000121094
49 *451:45 *453:10 6.18754e-05
50 *452:23 *453:10 0
51 *452:32 *453:10 0
52 *452:36 *453:10 2.01541e-05
53 *452:36 *453:21 0.000134509
54 *452:36 *453:38 3.76625e-05
55 *452:51 *453:38 0.000358675
56 *452:62 *453:62 1.86911e-05
57 *452:62 *453:73 4.9968e-05
*RES
1 *2000:Q *453:10 16.275 
2 *453:10 *1713:D 3.6 
3 *453:10 *453:21 2.085 
4 *453:21 *1714:B1 4.41 
5 *453:21 *453:38 9.075 
6 *453:38 *453:40 2 
7 *453:40 *1712:B 4.495 
8 *453:40 *1798:D 2.395 
9 *453:38 *453:62 2.85 
10 *453:62 *1846:A2 3.72375 
11 *453:62 *453:73 4.44 
12 *453:73 *1895:A 4.05 
13 *453:73 *1847:A 6.825 
*END

*D_NET *454 0.00576512
*CONN
*I *1613:A2 I *D sky130_fd_sc_hd__a22oi_2
*I *1612:A I *D sky130_fd_sc_hd__nand4_2
*I *1675:B1 I *D sky130_fd_sc_hd__a22oi_2
*I *1627:C I *D sky130_fd_sc_hd__and4_2
*I *1623:A1 I *D sky130_fd_sc_hd__a22o_2
*I *1684:B I *D sky130_fd_sc_hd__nand4_4
*I *1614:B I *D sky130_fd_sc_hd__and4_2
*I *1685:B2 I *D sky130_fd_sc_hd__a22o_4
*I *2048:X O *D sky130_fd_sc_hd__buf_6
*CAP
1 *1613:A2 0
2 *1612:A 0.000139089
3 *1675:B1 0.000155735
4 *1627:C 0
5 *1623:A1 0
6 *1684:B 5.77622e-05
7 *1614:B 0.000215089
8 *1685:B2 0
9 *2048:X 5.47611e-05
10 *454:56 0.000246616
11 *454:49 0.000157861
12 *454:43 0.000720531
13 *454:39 0.000584858
14 *454:19 0.000317646
15 *454:10 0.000192447
16 *454:6 0.000272808
17 *1614:B *1614:D 0.000124007
18 *1675:B1 *1622:A1 4.90031e-05
19 *1675:B1 *1627:A 0.000102029
20 *1675:B1 *1675:A1 0.000159957
21 *1675:B1 *497:81 4.66108e-05
22 *1684:B *1685:A2 0.00011852
23 *454:10 *1685:A2 9.50342e-06
24 *454:19 *1685:A2 7.47145e-05
25 *454:43 *1613:B2 4.99619e-05
26 *454:43 *1623:B1 4.66108e-05
27 *454:43 *513:23 0.000211174
28 *454:49 *1623:B1 0.000116158
29 *454:56 *1968:B 0.000167701
30 *1610:D *1675:B1 2.0851e-06
31 *1612:B *1612:A 1.77665e-05
32 *1612:B *454:43 1.19928e-05
33 *1612:D *454:43 0.000122801
34 *1623:A2 *454:56 5.09682e-05
35 *1627:B *1675:B1 0.000197019
36 *1627:B *454:56 4.82919e-05
37 *1627:D *1675:B1 3.83041e-05
38 *1627:D *454:56 0.000158072
39 *1676:B *1675:B1 8.89751e-05
40 *1685:B1 *1614:B 9.80943e-06
41 *91:12 *1612:A 5.06989e-05
42 *438:46 *454:56 0.000272485
43 *439:34 *454:43 2.7441e-05
44 *439:40 *454:43 1.83847e-05
45 *440:25 *454:43 4.82919e-05
46 *440:38 *454:10 0
47 *440:38 *454:43 6.77417e-05
48 *440:53 *1614:B 2.05056e-05
49 *440:53 *454:10 0
50 *440:66 *1614:B 0.000122331
51 *440:66 *1684:B 0
52 *440:66 *454:19 0
53 *440:75 *1684:B 0
54 *441:19 *454:10 0
55 *442:32 *1675:B1 0
*RES
1 *2048:X *454:6 2.395 
2 *454:6 *454:10 4.145 
3 *454:10 *1685:B2 3.6 
4 *454:10 *454:19 0.87 
5 *454:19 *1614:B 6.465 
6 *454:19 *1684:B 4.98 
7 *454:6 *454:39 1.14 
8 *454:39 *454:43 9.09 
9 *454:43 *454:49 5.38 
10 *454:49 *1623:A1 1.6 
11 *454:49 *454:56 3.9 
12 *454:56 *1627:C 1.6 
13 *454:56 *1675:B1 10.985 
14 *454:43 *1612:A 3.79 
15 *454:39 *1613:A2 1.6 
*END

*D_NET *455 0.00532778
*CONN
*I *1666:B1 I *D sky130_fd_sc_hd__a22o_2
*I *1654:C I *D sky130_fd_sc_hd__nand4_2
*I *1653:C I *D sky130_fd_sc_hd__and4_2
*I *1648:B2 I *D sky130_fd_sc_hd__a22o_2
*I *1645:B I *D sky130_fd_sc_hd__and2_4
*I *1729:A I *D sky130_fd_sc_hd__nand2_2
*I *2049:X O *D sky130_fd_sc_hd__dlymetal6s4s_1
*CAP
1 *1666:B1 8.61841e-06
2 *1654:C 0.000166941
3 *1653:C 1.8664e-05
4 *1648:B2 0
5 *1645:B 0
6 *1729:A 0.000105017
7 *2049:X 0.000263428
8 *455:60 0.000251636
9 *455:49 0.000356305
10 *455:34 0.000384216
11 *455:12 0.000105017
12 *455:10 0.00038608
13 *1654:C *1654:A 4.82863e-05
14 *1654:C *2072:A 0
15 *1654:C *519:95 0
16 *1666:B1 *1666:A1 4.77807e-05
17 *455:10 *465:61 8.73389e-06
18 *455:49 *1648:A2 3.09233e-05
19 *455:49 *1653:A 0.00067117
20 *455:49 *2072:A 0.000175029
21 *455:60 *1666:A1 2.05691e-05
22 *1645:A *1729:A 9.53428e-06
23 *1648:B1 *455:34 4.66108e-05
24 *1648:B1 *455:49 3.74161e-05
25 *1653:B *455:49 4.77807e-05
26 *1654:B *1654:C 0.000160658
27 *1666:B2 *455:60 0.000186986
28 *1729:B *1729:A 3.70488e-05
29 *1737:A *455:34 2.76356e-05
30 *1737:A *455:49 1.56428e-05
31 *124:10 *455:10 0
32 *132:6 *1666:B1 2.21074e-05
33 *132:6 *455:60 0.0001615
34 *215:6 *455:34 1.91597e-05
35 *229:22 *455:34 0
36 *234:30 *1729:A 0.000271248
37 *347:12 *455:49 0.000179077
38 *446:38 *455:49 8.53011e-05
39 *446:38 *455:60 4.77769e-05
40 *446:87 *455:60 4.66108e-05
41 *447:35 *455:34 2.14129e-05
42 *447:37 *455:10 0.000134516
43 *447:37 *455:34 0.000136182
44 *447:69 *455:10 0.000197269
45 *448:34 *1729:A 0.000387896
*RES
1 *2049:X *455:10 7.41 
2 *455:10 *455:12 2 
3 *455:12 *1729:A 5.875 
4 *455:12 *1645:B 1.6 
5 *455:10 *455:34 4.685 
6 *455:34 *1648:B2 1.6 
7 *455:34 *455:49 13.255 
8 *455:49 *1653:C 1.96 
9 *455:49 *455:60 2.88 
10 *455:60 *1654:C 8.45 
11 *455:60 *1666:B1 2.05 
*END

*D_NET *456 0.000830299
*CONN
*I *1959:A1 I *D sky130_fd_sc_hd__mux2_1
*I *2025:X O *D sky130_fd_sc_hd__dlygate4sd3_1
*CAP
1 *1959:A1 0.000175253
2 *2025:X 0.000175253
3 *1959:A1 *1959:A0 0.00036878
4 *1959:A1 *1961:A1 0.000101048
5 *3:34 *1959:A1 9.96427e-06
*RES
1 *2025:X *1959:A1 11.76 
*END

*D_NET *457 0.000275984
*CONN
*I *1957:A1 I *D sky130_fd_sc_hd__mux2_1
*I *2026:X O *D sky130_fd_sc_hd__dlygate4sd3_1
*CAP
1 *1957:A1 0.00010892
2 *2026:X 0.00010892
3 *1957:A1 *1957:S 3.06667e-05
4 *3:34 *1957:A1 2.74773e-05
*RES
1 *2026:X *1957:A1 9.03 
*END

*D_NET *458 0.00270101
*CONN
*I *1961:A1 I *D sky130_fd_sc_hd__mux2_1
*I *2027:X O *D sky130_fd_sc_hd__dlygate4sd3_1
*CAP
1 *1961:A1 0.000944621
2 *2027:X 0.000944621
3 *1961:A1 *1957:A0 9.85006e-05
4 *1961:A1 *1957:S 0.000159441
5 *1961:A1 *1959:A0 1.10951e-05
6 *1961:A1 *1959:S 0.00015856
7 *1961:A1 *2029:A 0.000153034
8 *1954:B *1961:A1 2.69217e-05
9 *1959:A1 *1961:A1 0.000101048
10 *1984:D *1961:A1 0
11 *2061:A *1961:A1 0
12 *3:34 *1961:A1 0.000103164
*RES
1 *2027:X *1961:A1 20.835 
*END

*D_NET *459 0.000383253
*CONN
*I *1972:A I *D sky130_fd_sc_hd__and2_2
*I *2028:X O *D sky130_fd_sc_hd__dlygate4sd3_1
*CAP
1 *1972:A 0.000119913
2 *2028:X 0.000119913
3 *1972:A *1973:B 6.72833e-06
4 *1972:A *493:57 5.09431e-05
5 *1973:A *1972:A 8.57563e-05
6 *1993:D *1972:A 0
*RES
1 *2028:X *1972:A 9.48 
*END

*D_NET *460 0.00193349
*CONN
*I *1963:A_N I *D sky130_fd_sc_hd__and3b_2
*I *2029:X O *D sky130_fd_sc_hd__dlygate4sd3_1
*CAP
1 *1963:A_N 0.000353262
2 *2029:X 0.000353262
3 *1963:A_N *1963:B 3.98885e-05
4 *1963:A_N *1963:C 0.000386713
5 *1963:A_N *2070:A 0.000206817
6 *1963:A_N *478:45 8.17218e-05
7 *1954:B *1963:A_N 4.36535e-05
8 *1981:D *1963:A_N 0.00013475
9 *1984:CLK *1963:A_N 0.000198945
10 *1984:D *1963:A_N 9.59594e-05
11 *1986:D *1963:A_N 0
12 *2061:A *1963:A_N 3.85204e-05
*RES
1 *2029:X *1963:A_N 16.83 
*END

*D_NET *461 0.000157352
*CONN
*I *1975:A I *D sky130_fd_sc_hd__and2_2
*I *2030:X O *D sky130_fd_sc_hd__dlygate4sd3_1
*CAP
1 *1975:A 5.19388e-05
2 *2030:X 5.19388e-05
3 *444:12 *1975:A 5.34747e-05
*RES
1 *2030:X *1975:A 4.34 
*END

*D_NET *462 0.000701501
*CONN
*I *1979:A I *D sky130_fd_sc_hd__and2_2
*I *2031:X O *D sky130_fd_sc_hd__dlygate4sd3_1
*CAP
1 *1979:A 0.00024206
2 *2031:X 0.00024206
3 *422:24 *1979:A 0.000130792
4 *449:8 *1979:A 8.65905e-05
*RES
1 *2031:X *1979:A 11.415 
*END

*D_NET *463 0.00104224
*CONN
*I *1976:A I *D sky130_fd_sc_hd__and2_2
*I *2032:X O *D sky130_fd_sc_hd__dlygate4sd3_1
*CAP
1 *1976:A 0.000272737
2 *2032:X 0.000272737
3 *1976:A *1976:B 0
4 *1976:A *494:47 0
5 *1999:D *1976:A 2.87867e-05
6 *449:19 *1976:A 0.000467979
*RES
1 *2032:X *1976:A 13.455 
*END

*D_NET *464 0.000149146
*CONN
*I *1974:A I *D sky130_fd_sc_hd__and2_2
*I *2033:X O *D sky130_fd_sc_hd__dlygate4sd3_1
*CAP
1 *1974:A 3.04398e-05
2 *2033:X 3.04398e-05
3 *1974:A *494:23 8.8266e-05
*RES
1 *2033:X *1974:A 3.995 
*END

*D_NET *465 0.00639055
*CONN
*I *1649:B I *D sky130_fd_sc_hd__nand2_2
*I *1733:D I *D sky130_fd_sc_hd__and4bb_2
*I *1732:A2_N I *D sky130_fd_sc_hd__o2bb2a_2
*I *1752:A I *D sky130_fd_sc_hd__and3_2
*I *1856:A1 I *D sky130_fd_sc_hd__a22o_2
*I *1753:B I *D sky130_fd_sc_hd__nand2_2
*I *2050:X O *D sky130_fd_sc_hd__clkdlybuf4s25_1
*CAP
1 *1649:B 0.000237756
2 *1733:D 3.70366e-05
3 *1732:A2_N 0.00025705
4 *1752:A 0
5 *1856:A1 0.000354589
6 *1753:B 0
7 *2050:X 0.000164294
8 *465:63 0.000368266
9 *465:61 0.000668358
10 *465:48 0.000476697
11 *465:24 0.000640333
12 *465:12 0.000570313
13 *1649:B *2072:A 0
14 *1732:A2_N *2072:A 0
15 *465:12 *466:23 6.55328e-05
16 *465:12 *466:38 0.000113972
17 *465:61 *1646:A 0.000163204
18 *465:63 *1646:A 0
19 y[0] *465:12 0
20 *1646:C *1649:B 0
21 *1646:C *465:61 0.000326398
22 *1650:A *1649:B 0
23 *1650:B *1649:B 5.33874e-05
24 *1651:A1 *1649:B 0
25 *1731:A2 *465:12 0.000185405
26 *1731:B1 *465:12 1.34361e-05
27 *1732:A1_N *1732:A2_N 0.000190418
28 *1732:B1 *1732:A2_N 2.36716e-05
29 *1732:B2 *1732:A2_N 7.67353e-05
30 *1752:B *465:48 3.57349e-05
31 *1754:A1 *465:24 0.000136168
32 *1754:A2 *465:24 0.000162318
33 *1754:B1 *465:24 8.57024e-05
34 *1756:C *465:24 2.30292e-05
35 *1757:B *465:24 0.000120655
36 *2012:CLK *1856:A1 0
37 *2049:A *465:12 0
38 *208:10 *1649:B 2.16389e-05
39 *211:8 *1733:D 8.40269e-05
40 *421:127 *1856:A1 0
41 *447:69 *465:61 9.30673e-05
42 *447:80 *1649:B 7.30547e-05
43 *447:80 *1732:A2_N 2.14129e-05
44 *447:80 *465:63 0.00013521
45 *448:28 *1856:A1 7.76103e-05
46 *448:34 *465:24 0.00015639
47 *449:56 *465:24 0.000122331
48 *449:56 *465:48 4.66108e-05
49 *455:10 *465:61 8.73389e-06
*RES
1 *2050:X *465:12 9.725 
2 *465:12 *465:24 10.945 
3 *465:24 *1753:B 1.6 
4 *465:24 *1856:A1 11.375 
5 *465:12 *465:48 2.1 
6 *465:48 *1752:A 1.6 
7 *465:48 *465:61 9.125 
8 *465:61 *465:63 1.635 
9 *465:63 *1732:A2_N 8.46 
10 *465:63 *1733:D 4.395 
11 *465:61 *1649:B 7.785 
*END

*D_NET *466 0.00541922
*CONN
*I *1737:B I *D sky130_fd_sc_hd__and2_2
*I *1871:B I *D sky130_fd_sc_hd__and3_2
*I *1857:B I *D sky130_fd_sc_hd__nand2_2
*I *1856:B1 I *D sky130_fd_sc_hd__a22o_2
*I *1755:A2 I *D sky130_fd_sc_hd__a21oi_2
*I *1756:B I *D sky130_fd_sc_hd__and3_2
*I *2051:X O *D sky130_fd_sc_hd__clkdlybuf4s25_1
*CAP
1 *1737:B 0
2 *1871:B 4.5509e-05
3 *1857:B 8.69391e-05
4 *1856:B1 6.18272e-05
5 *1755:A2 0
6 *1756:B 0.000235515
7 *2051:X 0.000376553
8 *466:52 0.000387714
9 *466:42 0.000378227
10 *466:38 0.000371124
11 *466:23 0.000677708
12 *466:6 0.00101242
13 diag_done *466:6 9.60582e-07
14 diag_done *466:23 7.26176e-06
15 *1731:A2 *466:38 7.21296e-06
16 *1737:A *1871:B 1.29826e-05
17 *1737:A *466:42 4.82916e-05
18 *1754:A1 *1756:B 0
19 *1754:A2 *1756:B 0
20 *1755:B1 *1756:B 0
21 *1755:B1 *466:38 0
22 *1756:A *1756:B 6.55406e-05
23 *1757:A *1756:B 0
24 *1757:A *466:38 8.6099e-05
25 *1856:A2 *1856:B1 2.77324e-05
26 *1856:A2 *466:52 0.000109613
27 *1858:A1 *466:38 0
28 *1858:A1 *466:42 9.53428e-06
29 *1858:A1 *466:52 7.35729e-05
30 *1858:A2 *1857:B 5.18362e-05
31 *1908:A1 *466:38 0
32 *1908:A1 *466:52 1.16074e-05
33 *2050:A *466:23 5.0751e-05
34 *2051:A *466:6 4.10476e-05
35 *124:10 *466:38 0
36 *229:22 *466:38 0.000143655
37 *230:23 *466:38 0
38 *233:8 *1756:B 5.53249e-06
39 *233:23 *466:52 1.91597e-05
40 *334:12 *466:52 0.000183048
41 *335:12 *466:52 4.28112e-06
42 *448:28 *1856:B1 5.3773e-05
43 *449:23 *1857:B 9.12857e-06
44 *449:23 *466:52 6.54361e-06
45 *449:40 *466:52 0.000239834
46 *449:48 *466:38 9.14049e-05
47 *449:48 *466:42 5.05437e-05
48 *449:48 *466:52 7.68414e-06
49 *449:50 *466:38 9.37731e-05
50 *449:56 *466:38 9.37731e-05
51 *465:12 *466:23 6.55328e-05
52 *465:12 *466:38 0.000113972
*RES
1 *2051:X *466:6 5.845 
2 *466:6 *1756:B 9.785 
3 *466:6 *466:23 7.28 
4 *466:23 *1755:A2 3.6 
5 *466:23 *466:38 9.125 
6 *466:38 *466:42 2.445 
7 *466:42 *466:52 9.805 
8 *466:52 *1856:B1 2.74 
9 *466:52 *1857:B 7.34 
10 *466:42 *1871:B 2.41 
11 *466:38 *1737:B 1.6 
*END

*D_NET *467 0.00949546
*CONN
*I *1714:B2 I *D sky130_fd_sc_hd__a22oi_2
*I *1713:B I *D sky130_fd_sc_hd__and4_2
*I *1631:B I *D sky130_fd_sc_hd__and4_2
*I *1633:A2 I *D sky130_fd_sc_hd__a22o_2
*I *1663:A1 I *D sky130_fd_sc_hd__a22oi_2
*I *1679:A1 I *D sky130_fd_sc_hd__a31oi_2
*I *1638:A I *D sky130_fd_sc_hd__nand2_2
*I *1639:A I *D sky130_fd_sc_hd__and4_2
*I *2052:X O *D sky130_fd_sc_hd__clkbuf_2
*CAP
1 *1714:B2 4.09561e-05
2 *1713:B 0.000201751
3 *1631:B 0.000204178
4 *1633:A2 8.47805e-05
5 *1663:A1 1.65033e-05
6 *1679:A1 0.000118009
7 *1638:A 0.000107201
8 *1639:A 0.000140542
9 *2052:X 0.00143424
10 *467:86 0.000512753
11 *467:71 0.000512023
12 *467:60 0.000185219
13 *467:49 0.000179263
14 *467:27 0.000398384
15 *467:21 0.000273294
16 *467:10 0.00157478
17 *1633:A2 *468:14 2.2864e-05
18 *467:49 *1639:C 0.000114492
19 *467:60 *1639:C 8.53113e-06
20 *467:60 *468:80 0.000129047
21 *467:86 *469:16 4.41506e-05
22 *1635:C_N *467:86 2.42236e-05
23 *1636:A1 *467:86 3.47668e-05
24 *1638:B *1638:A 4.82919e-05
25 *1660:A1 *467:10 0.000112349
26 *1660:A2 *467:10 3.23663e-05
27 *1665:B *467:10 1.46828e-05
28 *1713:A *1713:B 0.000230429
29 *1720:A *467:86 0
30 *108:27 *1663:A1 2.49909e-05
31 *109:14 *1663:A1 4.66108e-05
32 *110:6 *1631:B 4.16262e-05
33 *112:10 *1633:A2 6.97034e-05
34 *112:10 *467:60 2.86623e-05
35 *112:10 *467:71 6.36578e-05
36 *112:10 *467:86 3.05373e-05
37 *118:19 *467:10 2.87926e-05
38 *122:6 *467:10 0.000159741
39 *122:39 *467:10 7.60965e-05
40 *141:14 *1639:A 8.88631e-05
41 *141:14 *467:10 0.000176956
42 *143:6 *467:10 0.00011577
43 *144:10 *467:10 0.000163199
44 *191:10 *1714:B2 6.28765e-05
45 *383:12 *1679:A1 0.000208025
46 *383:12 *467:27 7.27196e-05
47 *383:12 *467:49 0.000214289
48 *383:12 *467:60 0.000193571
49 *383:12 *467:71 0.000108322
50 *383:12 *467:86 0.000288258
51 *450:19 *1679:A1 0.000142798
52 *450:38 *1679:A1 1.0183e-05
53 *450:51 *467:49 7.21296e-06
54 *450:64 *467:60 4.24292e-06
55 *450:64 *467:86 0
56 *451:10 *1638:A 2.75145e-05
57 *451:60 *1631:B 0.000124007
58 *451:60 *1714:B2 0.000116158
*RES
1 *2052:X *467:10 22.18 
2 *467:10 *1639:A 3.445 
3 *467:10 *467:21 2 
4 *467:21 *467:27 4.865 
5 *467:27 *1638:A 3.445 
6 *467:27 *1679:A1 9.785 
7 *467:21 *467:49 2.655 
8 *467:49 *1663:A1 4.05 
9 *467:49 *467:60 2.4 
10 *467:60 *1633:A2 5.235 
11 *467:60 *467:71 1.38 
12 *467:71 *1631:B 6.12 
13 *467:71 *467:86 6.905 
14 *467:86 *1713:B 4.12 
15 *467:86 *1714:B2 6.98 
*END

*D_NET *468 0.0092686
*CONN
*I *1663:B1 I *D sky130_fd_sc_hd__a22oi_2
*I *1639:C I *D sky130_fd_sc_hd__and4_2
*I *1633:B2 I *D sky130_fd_sc_hd__a22o_2
*I *1712:A I *D sky130_fd_sc_hd__nand2_2
*I *1798:B I *D sky130_fd_sc_hd__and4_2
*I *1714:A2 I *D sky130_fd_sc_hd__a22oi_2
*I *1713:C I *D sky130_fd_sc_hd__and4_2
*I *1631:A I *D sky130_fd_sc_hd__and4_2
*I *2053:X O *D sky130_fd_sc_hd__clkbuf_2
*CAP
1 *1663:B1 0
2 *1639:C 0.000109645
3 *1633:B2 0
4 *1712:A 5.8183e-05
5 *1798:B 6.05552e-05
6 *1714:A2 0
7 *1713:C 2.11983e-05
8 *1631:A 6.48201e-05
9 *2053:X 0.00189143
10 *468:80 0.000154531
11 *468:51 0.000453207
12 *468:42 0.000438431
13 *468:31 0.00021221
14 *468:20 0.000316058
15 *468:14 0.000505446
16 *468:8 0.00227758
17 *468:8 *1748:B 0.000759002
18 *468:8 *496:10 1.0124e-05
19 *1633:A1 *468:14 5.35969e-06
20 *1633:A2 *468:14 2.2864e-05
21 *1640:A *468:8 1.17309e-05
22 *1642:B *468:8 1.19928e-05
23 *1712:B *1712:A 8.65905e-05
24 *1712:B *1798:B 8.49205e-05
25 *1713:A *1713:C 4.82919e-05
26 *1800:A1 *1712:A 4.82863e-05
27 *2082:A *468:8 3.72916e-05
28 *112:10 *468:8 4.82919e-05
29 *112:10 *468:14 0.00015806
30 *119:8 *468:8 9.2741e-05
31 *119:19 *468:8 9.07251e-05
32 *121:10 *468:8 5.05437e-05
33 *450:38 *1639:C 1.91597e-05
34 *450:51 *1639:C 0.000111176
35 *450:51 *468:80 5.53249e-06
36 *450:64 *468:80 7.07801e-05
37 *453:10 *468:20 0.00011741
38 *453:10 *468:31 9.05377e-05
39 *453:10 *468:42 4.43871e-06
40 *453:21 *468:42 4.5371e-05
41 *453:38 *1712:A 2.59981e-05
42 *453:38 *468:42 1.31475e-05
43 *453:38 *468:51 0.000382863
44 *467:49 *1639:C 0.000114492
45 *467:60 *1639:C 8.53113e-06
46 *467:60 *468:80 0.000129047
*RES
1 *2053:X *468:8 24.835 
2 *468:8 *468:14 4.53 
3 *468:14 *468:20 5.195 
4 *468:20 *1631:A 4.395 
5 *468:20 *468:31 1.89 
6 *468:31 *1713:C 4.05 
7 *468:31 *468:42 1.89 
8 *468:42 *1714:A2 3.6 
9 *468:42 *468:51 7.755 
10 *468:51 *1798:B 4.395 
11 *468:51 *1712:A 5.01 
12 *468:14 *1633:B2 1.6 
13 *468:8 *468:80 3.635 
14 *468:80 *1639:C 5.775 
15 *468:80 *1663:B1 3.6 
*END

*D_NET *469 0.00820193
*CONN
*I *1634:B I *D sky130_fd_sc_hd__nand2_2
*I *1717:B I *D sky130_fd_sc_hd__and3_2
*I *1716:B I *D sky130_fd_sc_hd__nand2_2
*I *1798:C I *D sky130_fd_sc_hd__and4_2
*I *1846:A1 I *D sky130_fd_sc_hd__a22o_2
*I *1799:B I *D sky130_fd_sc_hd__nand2_2
*I *2054:X O *D sky130_fd_sc_hd__dlymetal6s4s_1
*CAP
1 *1634:B 0
2 *1717:B 0.000301026
3 *1716:B 0
4 *1798:C 0
5 *1846:A1 1.79469e-05
6 *1799:B 0.000120376
7 *2054:X 0.00149589
8 *469:42 0.000240088
9 *469:32 0.000356365
10 *469:22 0.000322843
11 *469:16 0.000538216
12 *469:8 0.00166484
13 *1717:B *1720:B 7.24949e-05
14 *1717:B *470:39 2.97004e-06
15 *1799:B *1846:B1 2.49909e-05
16 *469:42 *1846:B1 2.0514e-05
17 *1634:A *469:8 2.30292e-05
18 *1636:A1 *469:8 0.000387896
19 *1716:A *1717:B 1.91597e-05
20 *1716:A *469:22 1.16578e-05
21 *1717:C *1717:B 0.000186092
22 *1718:B *1717:B 4.66108e-05
23 *1722:B *469:8 2.67184e-05
24 *1724:C *469:8 4.80285e-05
25 *1727:A *469:8 2.75145e-05
26 *1727:B *469:8 6.32842e-05
27 *1797:B1 *469:8 1.7386e-05
28 *1798:D *469:32 2.49909e-05
29 *1800:A1 *469:32 2.8185e-05
30 *1801:A1 *469:32 5.12017e-06
31 *1802:C *469:32 3.86529e-05
32 *1846:A2 *469:42 1.16578e-05
33 *1846:B2 *1846:A1 4.00541e-06
34 *113:14 *469:8 0.000122331
35 *191:23 *1717:B 2.49909e-05
36 *191:23 *469:32 0.000187759
37 *273:12 *1799:B 2.75145e-05
38 *273:12 *469:42 1.91597e-05
39 *383:12 *469:16 0.000467266
40 *451:60 *469:16 0.0004706
41 *451:60 *469:32 2.97004e-06
42 *451:71 *469:32 8.98743e-05
43 *452:51 *469:32 7.34286e-05
44 *452:51 *469:42 9.37731e-05
45 *452:62 *469:42 0.000107634
46 *453:38 *469:42 4.9968e-05
47 *453:62 *1799:B 3.09233e-05
48 *453:62 *469:42 0.000157602
49 *453:73 *1799:B 8.34348e-05
50 *467:86 *469:16 4.41506e-05
*RES
1 *2054:X *469:8 24.4 
2 *469:8 *469:16 10.255 
3 *469:16 *469:22 1.17 
4 *469:22 *469:32 9.61 
5 *469:32 *469:42 7.21 
6 *469:42 *1799:B 8.195 
7 *469:42 *1846:A1 1.96 
8 *469:32 *1798:C 1.6 
9 *469:22 *1716:B 1.6 
10 *469:16 *1717:B 10.37 
11 *469:8 *1634:B 1.6 
*END

*D_NET *470 0.00773864
*CONN
*I *1847:B I *D sky130_fd_sc_hd__nand2_2
*I *1895:B I *D sky130_fd_sc_hd__and3_2
*I *1801:A2 I *D sky130_fd_sc_hd__a21oi_2
*I *1802:B I *D sky130_fd_sc_hd__and3_2
*I *1720:B I *D sky130_fd_sc_hd__and2_2
*I *1846:B1 I *D sky130_fd_sc_hd__a22o_2
*I *2055:X O *D sky130_fd_sc_hd__clkdlybuf4s25_1
*CAP
1 *1847:B 0.000170227
2 *1895:B 0
3 *1801:A2 6.15014e-05
4 *1802:B 0.000121445
5 *1720:B 0.000228623
6 *1846:B1 8.60642e-05
7 *2055:X 0.00085027
8 *470:39 0.000481307
9 *470:37 0.000411229
10 *470:24 0.000390046
11 *470:16 0.00023669
12 *470:10 0.00117169
13 *1717:B *1720:B 7.24949e-05
14 *1717:B *470:39 2.97004e-06
15 *1717:C *1720:B 0
16 *1717:C *470:39 0
17 *1718:B *1720:B 0.000136877
18 *1720:A *1720:B 1.22676e-05
19 *1799:B *1846:B1 2.49909e-05
20 *1800:A1 *1846:B1 1.08758e-05
21 *1800:A1 *470:37 0.000111455
22 *1800:A2 *470:24 9.54399e-05
23 *1803:A *1801:A2 4.99619e-05
24 *1846:A2 *1846:B1 1.2818e-05
25 *1846:B2 *1846:B1 0.000120655
26 *1846:B2 *470:24 0
27 *1847:A *1847:B 5.55927e-05
28 *1848:A1 *1847:B 0.000127931
29 *1848:B1 *470:24 0.000251595
30 *1850:C *470:16 0.000139238
31 *1895:C *470:16 1.1392e-05
32 *1896:B *470:16 9.60582e-07
33 *1918:A1 *470:10 0.000154488
34 *1918:A1 *470:16 5.33173e-05
35 *1919:B *470:10 0
36 *1923:A *470:10 0
37 *1931:A *470:10 3.64998e-06
38 *1932:A_N *470:10 0.000233925
39 *1932:B *470:10 0
40 *1937:B1 *470:10 7.4027e-05
41 *2055:A *470:10 4.92062e-05
42 *191:23 *1802:B 8.88715e-05
43 *273:12 *1846:B1 2.76742e-05
44 *275:10 *1801:A2 3.64998e-06
45 *275:10 *470:37 0.000113797
46 *275:25 *470:37 4.44927e-05
47 *276:19 *470:16 9.84957e-05
48 *276:19 *470:24 0.000154481
49 *276:30 *470:16 0.000139931
50 *277:10 *470:37 4.16353e-05
51 *279:10 *470:39 0
52 *279:19 *470:37 0
53 *323:6 *1847:B 0.00012657
54 *324:6 *1847:B 1.56428e-05
55 *383:12 *1720:B 0.000194531
56 *383:12 *470:10 0.000261954
57 *383:12 *470:16 7.61005e-05
58 *383:12 *470:37 0.000123828
59 *383:12 *470:39 0.000113056
60 *393:12 *470:10 0
61 *395:12 *470:10 7.81876e-05
62 *396:10 *470:10 0
63 *469:42 *1846:B1 2.0514e-05
*RES
1 *2055:X *470:10 19.17 
2 *470:10 *470:16 5.96 
3 *470:16 *470:24 7.27 
4 *470:24 *1846:B1 3.43 
5 *470:24 *470:37 6.9575 
6 *470:37 *470:39 2.5275 
7 *470:39 *1720:B 9.315 
8 *470:39 *1802:B 5.085 
9 *470:37 *1801:A2 4.7325 
10 *470:16 *1895:B 1.6 
11 *470:10 *1847:B 7.395 
*END

*D_NET *471 0.00473642
*CONN
*I *1954:A I *D sky130_fd_sc_hd__nor2_2
*I *1601:A I *D sky130_fd_sc_hd__inv_2
*I *1950:C1 I *D sky130_fd_sc_hd__a211o_2
*I *2056:X O *D sky130_fd_sc_hd__clkdlybuf4s25_1
*CAP
1 *1954:A 0.000593075
2 *1601:A 0.000474017
3 *1950:C1 0.000338971
4 *2056:X 0.00042577
5 *471:32 0.00115389
6 *1601:A *2001:D 7.28794e-05
7 *1601:A *491:16 0.000353831
8 *1601:A *491:91 4.92847e-05
9 *1950:C1 *1602:A 1.0183e-05
10 *1950:C1 *1943:A 3.26889e-05
11 *1950:C1 *1950:B1 9.84138e-05
12 *1950:C1 *472:10 5.37074e-05
13 *1954:A *1959:A0 0.000242684
14 *1954:A *1962:A 9.05349e-05
15 *1954:A *491:106 9.44821e-05
16 *1943:B *1950:C1 5.86895e-06
17 *1950:A2 *1950:C1 0
18 *1966:B *1954:A 0
19 *1984:D *1954:A 5.97306e-05
20 *1987:D *1954:A 0.000310868
21 *2007:D *1954:A 0
22 *2021:A *1601:A 5.84828e-05
23 *3:34 *1954:A 0.000188271
24 *3:34 *471:32 2.87867e-05
25 *419:33 *1954:A 0
26 *419:46 *1954:A 0
*RES
1 *2056:X *1950:C1 11.91 
2 *2056:X *471:32 4.92 
3 *471:32 *1601:A 11.43 
4 *471:32 *1954:A 17.91 
*END

*D_NET *472 0.00121857
*CONN
*I *1602:A I *D sky130_fd_sc_hd__inv_2
*I *1943:A I *D sky130_fd_sc_hd__and2_2
*I *2057:X O *D sky130_fd_sc_hd__clkdlybuf4s25_1
*CAP
1 *1602:A 0.000233073
2 *1943:A 1.87863e-05
3 *2057:X 0.000210246
4 *472:10 0.000462106
5 *1602:A *1950:B1 0
6 *472:10 *1950:B1 1.56406e-05
7 *1943:B *1602:A 1.40971e-05
8 *1943:B *472:10 3.10618e-05
9 *1950:C1 *1602:A 1.0183e-05
10 *1950:C1 *1943:A 3.26889e-05
11 *1950:C1 *472:10 5.37074e-05
12 *1965:A0 *1602:A 2.96396e-05
13 *2035:A *472:10 4.99619e-05
14 *423:12 *472:10 5.73739e-05
*RES
1 *2057:X *472:10 5.275 
2 *472:10 *1943:A 2.215 
3 *472:10 *1602:A 8.96 
*END

*D_NET *473 0.000722332
*CONN
*I *1957:A0 I *D sky130_fd_sc_hd__mux2_1
*I *2058:X O *D sky130_fd_sc_hd__clkdlybuf4s25_1
*CAP
1 *1957:A0 0.00016015
2 *2058:X 0.00016015
3 *1957:A0 *1957:S 9.98408e-05
4 *1958:B *1957:A0 7.03219e-05
5 *1961:A1 *1957:A0 9.85006e-05
6 *1983:D *1957:A0 6.22332e-05
7 *3:34 *1957:A0 7.11365e-05
*RES
1 *2058:X *1957:A0 11.025 
*END

*D_NET *474 0.00373998
*CONN
*I *2096:A I *D sky130_fd_sc_hd__buf_2
*I *1614:D I *D sky130_fd_sc_hd__and4_2
*I *1768:B I *D sky130_fd_sc_hd__and4_2
*I *1683:A I *D sky130_fd_sc_hd__nand2_2
*I *1684:C I *D sky130_fd_sc_hd__nand4_4
*I *1685:A2 I *D sky130_fd_sc_hd__a22o_4
*I *2059:X O *D sky130_fd_sc_hd__buf_12
*CAP
1 *2096:A 0.000166659
2 *1614:D 0.000101465
3 *1768:B 0
4 *1683:A 1.17375e-05
5 *1684:C 0.000223292
6 *1685:A2 0.000209577
7 *2059:X 6.02661e-05
8 *474:16 0.000669747
9 *474:10 0.000579297
10 *474:8 0.000122823
11 *1683:A *497:14 2.75229e-05
12 *474:8 *495:20 2.03321e-05
13 *474:8 *495:22 5.21545e-05
14 *474:8 *495:26 4.18603e-06
15 *474:10 *495:26 6.4422e-05
16 *474:16 *485:12 8.14111e-05
17 *474:16 *485:14 0
18 *474:16 *485:20 0
19 *474:16 *495:26 0.000127594
20 *1614:B *1614:D 0.000124007
21 *1684:B *1685:A2 0.00011852
22 *1685:B1 *1614:D 5.05437e-05
23 *1685:B1 *1685:A2 4.99619e-05
24 *1687:C *474:16 9.82856e-06
25 *1767:A *474:16 1.08012e-05
26 *1767:B *474:16 0.000328978
27 *162:8 *474:16 7.37195e-05
28 *162:17 *474:16 6.80854e-05
29 *440:53 *1685:A2 1.22762e-05
30 *440:66 *1614:D 1.85674e-05
31 *440:66 *1685:A2 2.75229e-05
32 *440:75 *474:16 0
33 *441:36 *1685:A2 0
34 *441:46 *1683:A 4.82919e-05
35 *441:46 *474:16 0
36 *441:52 *474:10 5.84456e-05
37 *441:52 *474:16 4.43871e-06
38 *441:61 *474:8 9.9535e-05
39 *441:61 *474:10 2.97561e-05
40 *454:10 *1685:A2 9.50342e-06
41 *454:19 *1685:A2 7.47145e-05
*RES
1 *2059:X *474:8 5.745 
2 *474:8 *474:10 1.89 
3 *474:10 *474:16 11.115 
4 *474:16 *1685:A2 6.195 
5 *474:16 *1684:C 4.395 
6 *474:10 *1683:A 4.05 
7 *474:8 *1768:B 3.6 
8 *1685:A2 *1614:D 5.39 
9 *1684:C *2096:A 5.75 
*END

*D_NET *475 0.00121318
*CONN
*I *1959:A0 I *D sky130_fd_sc_hd__mux2_1
*I *2060:X O *D sky130_fd_sc_hd__clkdlybuf4s25_1
*CAP
1 *1959:A0 0.00029531
2 *2060:X 0.00029531
3 *1954:A *1959:A0 0.000242684
4 *1959:A1 *1959:A0 0.00036878
5 *1961:A1 *1959:A0 1.10951e-05
*RES
1 *2060:X *1959:A0 14.055 
*END

*D_NET *476 0.000903667
*CONN
*I *1961:A0 I *D sky130_fd_sc_hd__mux2_1
*I *2061:X O *D sky130_fd_sc_hd__clkdlybuf4s25_1
*CAP
1 *1961:A0 0.000144548
2 *2061:X 0.000144548
3 *1961:A0 *1961:S 6.14541e-05
4 *1954:B *1961:A0 0.000356418
5 *1981:D *1961:A0 0.000196699
*RES
1 *2061:X *1961:A0 7.445 
*END

*D_NET *477 0.00145463
*CONN
*I *1963:C I *D sky130_fd_sc_hd__and3b_2
*I *2062:X O *D sky130_fd_sc_hd__clkdlybuf4s25_1
*CAP
1 *1963:C 0.000482977
2 *2062:X 0.000482977
3 *1963:C *1963:B 5.35181e-06
4 *1963:C *1969:B 9.66106e-05
5 *1963:A_N *1963:C 0.000386713
6 *420:12 *1963:C 0
*RES
1 *2062:X *1963:C 13.6613 
*END

*D_NET *478 0.00643187
*CONN
*I *1957:S I *D sky130_fd_sc_hd__mux2_1
*I *2070:A I *D sky130_fd_sc_hd__clkdlybuf4s25_1
*I *1961:S I *D sky130_fd_sc_hd__mux2_1
*I *2029:A I *D sky130_fd_sc_hd__dlygate4sd3_1
*I *1959:S I *D sky130_fd_sc_hd__mux2_1
*I *1965:A1 I *D sky130_fd_sc_hd__mux2_1
*I *1987:Q O *D sky130_fd_sc_hd__dfxtp_2
*CAP
1 *1957:S 0.000282219
2 *2070:A 0.000695635
3 *1961:S 8.05839e-05
4 *2029:A 4.96811e-05
5 *1959:S 6.03638e-05
6 *1965:A1 0.000141793
7 *1987:Q 0
8 *478:45 0.000933395
9 *478:23 0.000110045
10 *478:21 0.000352271
11 *478:8 0.000565416
12 *478:4 0.000510747
13 *2070:A *1963:B 7.70828e-05
14 *2070:A *492:10 8.18012e-05
15 *2070:A *492:34 0.000155097
16 *1954:B *1961:S 4.77769e-05
17 *1954:B *478:45 3.79318e-05
18 *1957:A0 *1957:S 9.98408e-05
19 *1957:A1 *1957:S 3.06667e-05
20 *1958:B *1957:S 0.000243629
21 *1958:B *1965:A1 8.8266e-05
22 *1961:A0 *1961:S 6.14541e-05
23 *1961:A1 *1957:S 0.000159441
24 *1961:A1 *1959:S 0.00015856
25 *1961:A1 *2029:A 0.000153034
26 *1963:A_N *2070:A 0.000206817
27 *1963:A_N *478:45 8.17218e-05
28 *1981:CLK *1965:A1 2.98644e-05
29 *1981:CLK *478:21 0.000104891
30 *1981:D *478:21 5.17086e-05
31 *1981:D *478:45 4.59022e-06
32 *1983:CLK *478:45 0
33 *1985:D *2070:A 0
34 *1986:D *2070:A 0
35 *2026:A *1957:S 0.000114649
36 *3:34 *1957:S 9.48717e-06
37 *3:34 *1959:S 6.08463e-05
38 *3:34 *2029:A 6.43169e-05
39 *419:46 *1965:A1 0.000204729
40 *441:10 *2070:A 0.000321522
*RES
1 *1987:Q *478:4 1.6 
2 *478:4 *478:8 4.52 
3 *478:8 *1965:A1 7.05 
4 *478:8 *478:21 3.165 
5 *478:21 *478:23 2 
6 *478:23 *1959:S 3.445 
7 *478:23 *2029:A 3.445 
8 *478:21 *478:45 3.105 
9 *478:45 *1961:S 5.085 
10 *478:45 *2070:A 17.325 
11 *478:4 *1957:S 11.855 
*END

*D_NET *479 0.000368794
*CONN
*I *2071:A I *D sky130_fd_sc_hd__clkdlybuf4s25_1
*I *1988:Q O *D sky130_fd_sc_hd__dfxtp_2
*CAP
1 *2071:A 0.000182369
2 *1988:Q 0.000182369
3 *1756:A *2071:A 4.05674e-06
4 *2011:D *2071:A 0
5 *2050:A *2071:A 0
*RES
1 *1988:Q *2071:A 9.63 
*END

*D_NET *480 0.00311032
*CONN
*I *2072:A I *D sky130_fd_sc_hd__clkdlybuf4s25_1
*I *1935:Y O *D sky130_fd_sc_hd__nor2_2
*CAP
1 *2072:A 0.000661158
2 *1935:Y 0.000661158
3 *2072:A *1646:A 0.00011686
4 *2072:A *1648:A2 2.34423e-05
5 *2072:A *519:10 2.97004e-06
6 *2072:A *519:38 0.00011282
7 *2072:A *519:95 0.000160658
8 *1646:C *2072:A 0.000201393
9 *1648:A1 *2072:A 0.000180689
10 *1649:B *2072:A 0
11 *1654:C *2072:A 0
12 *1654:D *2072:A 8.65905e-05
13 *1732:A2_N *2072:A 0
14 *347:12 *2072:A 9.91348e-05
15 *383:12 *2072:A 0
16 *446:87 *2072:A 0.000628421
17 *447:113 *2072:A 0
18 *455:49 *2072:A 0.000175029
*RES
1 *1935:Y *2072:A 24.165 
*END

*D_NET *481 0.00034395
*CONN
*I *2073:A I *D sky130_fd_sc_hd__clkdlybuf4s25_1
*I *1936:Y O *D sky130_fd_sc_hd__xnor2_2
*CAP
1 *2073:A 0.000138271
2 *1936:Y 0.000138271
3 y[1] *2073:A 0
4 *1866:B *2073:A 6.74079e-05
*RES
1 *1936:Y *2073:A 9.375 
*END

*D_NET *482 0.000828903
*CONN
*I *2074:A I *D sky130_fd_sc_hd__dlymetal6s2s_1
*I *1681:Y O *D sky130_fd_sc_hd__xnor2_2
*CAP
1 *2074:A 0.000414451
2 *1681:Y 0.000414451
*RES
1 *1681:Y *2074:A 9.275 
*END

*D_NET *483 0.00034395
*CONN
*I *2075:A I *D sky130_fd_sc_hd__buf_6
*I *1750:Y O *D sky130_fd_sc_hd__xnor2_2
*CAP
1 *2075:A 0.000138271
2 *1750:Y 0.000138271
3 y[3] *2075:A 0
4 *1866:B *2075:A 6.74079e-05
*RES
1 *1750:Y *2075:A 9.375 
*END

*D_NET *484 0.000599898
*CONN
*I *2076:A I *D sky130_fd_sc_hd__buf_6
*I *1818:X O *D sky130_fd_sc_hd__xor2_2
*CAP
1 *2076:A 0.000159492
2 *1818:X 0.000159492
3 y[4] *2076:A 0
4 *1744:B *2076:A 0
5 *1866:B *2076:A 0.000191159
6 *206:16 *2076:A 8.97564e-05
*RES
1 *1818:X *2076:A 11.13 
*END

*D_NET *485 0.00812022
*CONN
*I *1769:B I *D sky130_fd_sc_hd__nand2_2
*I *1832:A1 I *D sky130_fd_sc_hd__a22oi_2
*I *1833:B I *D sky130_fd_sc_hd__and4_2
*I *1768:C I *D sky130_fd_sc_hd__and4_2
*I *1687:B I *D sky130_fd_sc_hd__nand4_2
*I *1686:A2 I *D sky130_fd_sc_hd__a22o_4
*I *1617:B I *D sky130_fd_sc_hd__and3_2
*I *1616:B I *D sky130_fd_sc_hd__nand2_2
*I *2063:X O *D sky130_fd_sc_hd__dlymetal6s2s_1
*CAP
1 *1769:B 0.00034244
2 *1832:A1 1.63356e-05
3 *1833:B 0
4 *1768:C 5.46507e-05
5 *1687:B 0
6 *1686:A2 2.2266e-05
7 *1617:B 0.000106007
8 *1616:B 7.24199e-05
9 *2063:X 7.99701e-05
10 *485:80 0.000448946
11 *485:69 0.000159647
12 *485:20 0.000842995
13 *485:14 0.000765125
14 *485:12 0.000291725
15 *485:10 0.000367883
16 *485:8 0.000249245
17 *1769:B *1885:B 4.66108e-05
18 *1769:B *495:10 2.16232e-05
19 *1832:A1 *495:18 4.82919e-05
20 *485:80 *495:10 9.50342e-06
21 *1617:C *1617:B 3.26519e-06
22 *1686:A1 *485:20 6.78079e-05
23 *1686:B2 *1686:A2 4.82919e-05
24 *1686:B2 *485:20 0.000138808
25 *1688:A *1617:B 3.64998e-06
26 *1688:A *485:20 1.56428e-05
27 *1688:B *485:20 5.33172e-05
28 *1689:A1 *485:20 1.7386e-05
29 *1767:B *485:12 0.000207251
30 *1767:B *485:14 5.53249e-06
31 *1768:A *1768:C 3.03775e-05
32 *1769:A *1769:B 1.85674e-05
33 *1769:A *1832:A1 1.56428e-05
34 *1770:A2 *1769:B 3.0631e-05
35 *1770:A2 *485:80 7.5775e-05
36 *1770:B1 *485:8 4.66108e-05
37 *1832:A2 *485:80 1.88904e-05
38 *1835:A *485:10 2.92496e-05
39 *1835:A *485:69 0.000175214
40 *1835:B *485:69 4.66108e-05
41 *1835:B *485:80 4.66108e-05
42 *1836:A *1769:B 0.00023468
43 *1836:B *1769:B 8.65961e-05
44 *1885:A *485:80 2.13396e-05
45 *1885:C *1769:B 0.000127366
46 *93:19 *1616:B 0.000294414
47 *245:8 *485:10 0.000298442
48 *251:10 *1769:B 0
49 *308:8 *1769:B 0.000115464
50 *309:12 *1769:B 8.49205e-05
51 *360:10 *1769:B 2.36616e-05
52 *438:67 *1616:B 2.10433e-05
53 *438:69 *1616:B 0.00027503
54 *440:75 *485:10 3.84331e-05
55 *440:75 *485:12 0.000389993
56 *440:75 *485:14 8.87475e-05
57 *440:75 *485:20 4.31921e-05
58 *440:86 *485:10 1.15688e-05
59 *441:52 *485:12 0.000117825
60 *441:61 *485:10 0.000407465
61 *441:61 *485:12 2.14129e-05
62 *441:61 *485:69 0.000186099
63 *441:61 *485:80 4.9968e-05
64 *441:72 *485:80 6.03272e-05
65 *474:16 *485:12 8.14111e-05
66 *474:16 *485:14 0
67 *474:16 *485:20 0
*RES
1 *2063:X *485:8 4.74 
2 *485:8 *485:10 4.695 
3 *485:10 *485:12 8.01 
4 *485:12 *485:14 1.89 
5 *485:14 *485:20 10.565 
6 *485:20 *1616:B 9.02 
7 *485:20 *1617:B 2.74 
8 *485:14 *1686:A2 4.05 
9 *485:12 *1687:B 3.6 
10 *485:10 *1768:C 4.395 
11 *485:8 *485:69 4.595 
12 *485:69 *1833:B 1.6 
13 *485:69 *485:80 4.34 
14 *485:80 *1832:A1 4.05 
15 *485:80 *1769:B 15.355 
*END

*D_NET *486 0.000889663
*CONN
*I *2077:A I *D sky130_fd_sc_hd__buf_6
*I *1870:X O *D sky130_fd_sc_hd__xor2_2
*CAP
1 *2077:A 0.000304858
2 *1870:X 0.000304858
3 *1866:B *2077:A 0.000205376
4 *381:8 *2077:A 7.45712e-05
*RES
1 *1870:X *2077:A 13.875 
*END

*D_NET *487 0.000754621
*CONN
*I *2078:A I *D sky130_fd_sc_hd__buf_6
*I *1907:Y O *D sky130_fd_sc_hd__xnor2_2
*CAP
1 *2078:A 0.000229395
2 *1907:Y 0.000229395
3 y[6] *2078:A 0.00029583
4 *1927:A1 *2078:A 0
*RES
1 *1907:Y *2078:A 12.36 
*END

*D_NET *488 0.000324469
*CONN
*I *2079:A I *D sky130_fd_sc_hd__buf_6
*I *1928:X O *D sky130_fd_sc_hd__xor2_2
*CAP
1 *2079:A 0.000162235
2 *1928:X 0.000162235
3 *1929:A1 *2079:A 0
*RES
1 *1928:X *2079:A 9.795 
*END

*D_NET *489 0.000520843
*CONN
*I *2080:A I *D sky130_fd_sc_hd__buf_6
*I *1933:X O *D sky130_fd_sc_hd__xor2_2
*CAP
1 *2080:A 0.00017299
2 *1933:X 0.00017299
3 y[8] *2080:A 4.99619e-05
4 *1933:A *2080:A 0
5 *1937:A1 *2080:A 0.0001249
*RES
1 *1933:X *2080:A 10.485 
*END

*D_NET *490 0.000509502
*CONN
*I *2081:A I *D sky130_fd_sc_hd__buf_6
*I *1937:X O *D sky130_fd_sc_hd__a21o_2
*CAP
1 *2081:A 0.000150454
2 *1937:X 0.000150454
3 y[9] *2081:A 8.65905e-05
4 *1937:A1 *2081:A 7.37172e-05
5 *1937:B1 *2081:A 4.82863e-05
*RES
1 *1937:X *2081:A 6.08 
*END

*D_NET *491 0.0121697
*CONN
*I *1958:A I *D sky130_fd_sc_hd__and2_2
*I *1962:A I *D sky130_fd_sc_hd__and2_2
*I *1960:A I *D sky130_fd_sc_hd__and2_2
*I *1966:A I *D sky130_fd_sc_hd__and2_2
*I *1940:A I *D sky130_fd_sc_hd__and2_2
*I *1948:A I *D sky130_fd_sc_hd__and2_2
*I *1944:A I *D sky130_fd_sc_hd__and2_2
*I *1949:A I *D sky130_fd_sc_hd__and2_2
*I *1956:B1 I *D sky130_fd_sc_hd__o21a_2
*I *1947:A I *D sky130_fd_sc_hd__and2_2
*I *2021:X O *D sky130_fd_sc_hd__clkdlybuf4s25_1
*CAP
1 *1958:A 0.000212101
2 *1962:A 0.000230244
3 *1960:A 0
4 *1966:A 0
5 *1940:A 0
6 *1948:A 1.04904e-05
7 *1944:A 0.000836807
8 *1949:A 0.000145578
9 *1956:B1 6.76647e-05
10 *1947:A 0
11 *2021:X 0.00111411
12 *491:106 0.000532897
13 *491:100 0.000608124
14 *491:91 0.000710623
15 *491:35 0.00064734
16 *491:31 0.00150072
17 *491:27 0.000420341
18 *491:23 0.000272987
19 *491:16 0.000589806
20 *1944:A *1939:A 1.33293e-05
21 *1944:A *1941:A 1.34594e-05
22 *1944:A *1941:B 8.8266e-05
23 *1944:A *1945:B 0.000357374
24 *1944:A *1952:D 4.37221e-05
25 *1944:A *520:16 3.49981e-05
26 *1944:A *522:6 0.000344737
27 *491:16 *1947:B 0.000290598
28 *491:31 *1941:A 1.83756e-05
29 *491:31 *1948:B 2.937e-05
30 *491:35 *1948:B 0
31 *491:35 *1953:A 9.72092e-05
32 *491:35 *1953:B 0
33 *491:35 *1967:B 0.000268278
34 *491:91 *2001:D 2.17884e-05
35 diag_busy *1962:A 0.000150149
36 *1601:A *491:16 0.000353831
37 *1601:A *491:91 4.92847e-05
38 *1954:A *1962:A 9.05349e-05
39 *1954:A *491:106 9.44821e-05
40 *1956:A1 *1949:A 2.02316e-05
41 *1956:A1 *1956:B1 5.01786e-05
42 *1956:A1 *491:35 0.000156611
43 *1956:A2 *1956:B1 2.10841e-05
44 *1962:B *1962:A 0.0002954
45 *1965:A0 *491:16 0
46 *1984:D *1962:A 0
47 *2003:D *491:31 6.60261e-06
48 *2003:D *491:35 6.75709e-05
49 *2004:D *491:16 0.000137777
50 *2008:D *1949:A 0.00017139
51 *2011:D *1944:A 5.34747e-05
52 *2021:A *491:16 1.61831e-05
53 *2025:A *491:106 0.000115945
54 *2045:A *491:35 0.000114492
55 *2056:A *491:91 0
56 *2056:A *491:100 0
57 *2058:A *491:106 0
58 *3:34 *491:91 5.72004e-05
59 *3:34 *491:100 7.66727e-05
60 *3:34 *491:106 7.8711e-05
61 *408:16 *491:35 5.16418e-05
62 *416:25 *491:16 1.03323e-05
63 *416:25 *491:35 1.26626e-05
64 *416:46 *1949:A 0.000202581
65 *416:46 *491:35 0.000184928
66 *418:81 *491:35 8.41015e-06
*RES
1 *2021:X *491:16 14.42 
2 *491:16 *1947:A 1.6 
3 *491:16 *491:23 1.485 
4 *491:23 *491:27 2.535 
5 *491:27 *491:31 2.88 
6 *491:31 *491:35 12.56 
7 *491:35 *1956:B1 4.755 
8 *491:35 *1949:A 8.04 
9 *491:31 *1944:A 14.26 
10 *491:27 *1948:A 1.96 
11 *491:23 *1940:A 1.6 
12 *2021:X *491:91 11.205 
13 *491:91 *1966:A 3.6 
14 *491:91 *491:100 2.145 
15 *491:100 *491:106 6.78 
16 *491:106 *1960:A 3.6 
17 *491:106 *1962:A 9.57 
18 *491:100 *1958:A 6.57 
*END

*D_NET *492 0.00687776
*CONN
*I *1970:B I *D sky130_fd_sc_hd__and2_2
*I *1968:B I *D sky130_fd_sc_hd__and2_2
*I *1971:B I *D sky130_fd_sc_hd__and2_2
*I *1969:B I *D sky130_fd_sc_hd__and2_2
*I *1963:B I *D sky130_fd_sc_hd__and3b_2
*I *2022:X O *D sky130_fd_sc_hd__clkdlybuf4s25_1
*CAP
1 *1970:B 0
2 *1968:B 0.000503043
3 *1971:B 0
4 *1969:B 0.000199216
5 *1963:B 0.000367618
6 *2022:X 0.000299732
7 *492:41 0.000624881
8 *492:34 0.000294432
9 *492:10 0.000635099
10 *492:8 0.000540592
11 *1968:B *1627:A 0.000122325
12 *1968:B *1675:A1 0
13 *1623:A2 *1968:B 0.000125631
14 *1627:D *1968:B 8.40213e-05
15 *1675:B2 *1968:B 4.99619e-05
16 *1963:A_N *1963:B 3.98885e-05
17 *1963:C *1963:B 5.35181e-06
18 *1963:C *1969:B 9.66106e-05
19 *1970:A *492:41 0.0001249
20 *1983:CLK *1963:B 0
21 *1983:CLK *492:10 0
22 *1984:D *1963:B 0.000148488
23 *1990:CLK *1969:B 0.000198618
24 *1991:D *1968:B 7.35729e-05
25 *1992:D *492:34 0.00025015
26 *2015:A *1968:B 1.60083e-05
27 *2022:A *492:8 1.20414e-05
28 *2062:A *492:8 0.000315527
29 *2070:A *1963:B 7.70828e-05
30 *2070:A *492:10 8.18012e-05
31 *2070:A *492:34 0.000155097
32 *102:10 *1968:B 0.000108561
33 *418:47 *1968:B 1.15146e-05
34 *420:12 *492:10 0
35 *420:12 *492:34 0
36 *438:46 *1968:B 9.47267e-06
37 *438:52 *1968:B 0.000161467
38 *439:8 *1969:B 0.000237611
39 *439:19 *1969:B 8.64421e-05
40 *440:8 *492:34 0.000120186
41 *440:25 *492:34 2.14129e-05
42 *441:10 *492:34 0.000321522
43 *441:19 *492:34 9.50342e-06
44 *445:23 *1968:B 0.000180675
45 *454:56 *1968:B 0.000167701
*RES
1 *2022:X *492:8 7.5 
2 *492:8 *492:10 1.38 
3 *492:10 *1963:B 8.715 
4 *492:10 *1969:B 8.88 
5 *492:8 *492:34 8.99 
6 *492:34 *1971:B 1.6 
7 *492:34 *492:41 2.175 
8 *492:41 *1968:B 17.285 
9 *492:41 *1970:B 1.6 
*END

*D_NET *493 0.0111293
*CONN
*I *1967:A I *D sky130_fd_sc_hd__and2_2
*I *1939:A I *D sky130_fd_sc_hd__and2_2
*I *1945:A I *D sky130_fd_sc_hd__and2_2
*I *1941:A I *D sky130_fd_sc_hd__and2_2
*I *1946:A I *D sky130_fd_sc_hd__and2_2
*I *1973:B I *D sky130_fd_sc_hd__and2_2
*I *1972:B I *D sky130_fd_sc_hd__and2_2
*I *1942:A I *D sky130_fd_sc_hd__and2_2
*I *1938:B I *D sky130_fd_sc_hd__and2_2
*I *1951:B1 I *D sky130_fd_sc_hd__o41a_2
*I *2023:X O *D sky130_fd_sc_hd__clkdlybuf4s25_1
*CAP
1 *1967:A 0.000150445
2 *1939:A 0.000165165
3 *1945:A 0
4 *1941:A 9.92921e-05
5 *1946:A 4.84397e-05
6 *1973:B 0.000174832
7 *1972:B 2.0132e-05
8 *1942:A 0.000239883
9 *1938:B 0.000450155
10 *1951:B1 0
11 *2023:X 0
12 *493:116 0.000468269
13 *493:94 0.000245606
14 *493:88 0.000684627
15 *493:57 0.000313666
16 *493:46 0.0006402
17 *493:25 0.000731769
18 *493:23 0.000392453
19 *493:10 0.000571498
20 *493:4 0.000613139
21 *1938:B *1938:A 4.99619e-05
22 *1938:B *1952:A 0.000505378
23 *1939:A *1952:D 1.8325e-05
24 *1939:A *520:16 5.26286e-05
25 *1941:A *1941:B 5.05437e-05
26 *1941:A *522:6 7.35813e-05
27 *1942:A *1942:B 0.000598841
28 *1967:A *1952:D 2.0413e-05
29 *1967:A *1967:B 0.000385327
30 *1967:A *520:16 3.86607e-05
31 *493:10 *1949:B 1.89685e-05
32 *493:23 *1949:B 0.000110676
33 *493:94 *1945:B 0.000203924
34 *493:94 *522:6 3.90495e-05
35 *493:116 *1945:B 4.85494e-05
36 *493:116 *520:16 2.38115e-05
37 *1944:A *1939:A 1.33293e-05
38 *1944:A *1941:A 1.34594e-05
39 *1951:A3 *1938:B 0.000135382
40 *1951:A3 *493:46 5.05981e-05
41 *1952:B *1967:A 0.00012994
42 *1952:B *493:88 2.75145e-05
43 *1952:B *493:116 9.50342e-06
44 *1972:A *1973:B 6.72833e-06
45 *1972:A *493:57 5.09431e-05
46 *1973:A *1973:B 0.000125545
47 *1973:A *493:57 7.18795e-06
48 *1994:D *1973:B 1.08758e-05
49 *2006:D *493:88 0
50 *2006:D *493:94 0.000138351
51 *2009:D *1941:A 0.0001249
52 *2009:D *493:94 0.000203178
53 *2013:A *1942:A 7.11673e-05
54 *2038:A *1967:A 0.000177127
55 *2040:A *493:94 0.000201508
56 *2042:A *1938:B 0.000141467
57 *2044:A *493:46 0.000277691
58 *408:16 *493:10 0
59 *408:16 *493:88 0.000227679
60 *418:6 *1942:A 0.000140761
61 *418:15 *1942:A 6.19968e-05
62 *418:62 *1942:A 4.22944e-05
63 *418:62 *493:57 6.92161e-05
64 *418:67 *1938:B 3.48155e-05
65 *418:67 *493:46 5.42014e-05
66 *421:35 *493:10 1.50919e-05
67 *421:35 *493:23 0
68 *421:35 *493:88 0
69 *425:12 *1938:B 6.90876e-05
70 *425:14 *1938:B 0.000111918
71 *429:10 *1938:B 0
72 *429:14 *1938:B 0
73 *429:14 *493:10 0
74 *432:8 *1946:A 2.49909e-05
75 *432:8 *493:23 5.83121e-06
76 *443:12 *1942:A 8.84437e-05
77 *491:31 *1941:A 1.83756e-05
*RES
1 *2023:X *493:4 1.6 
2 *493:4 *493:10 5.45 
3 *493:10 *1951:B1 3.6 
4 *493:10 *493:23 7.61 
5 *493:23 *493:25 2 
6 *493:25 *1938:B 14.52 
7 *493:25 *493:46 7.715 
8 *493:46 *1942:A 9.31 
9 *493:46 *493:57 2.175 
10 *493:57 *1972:B 1.96 
11 *493:57 *1973:B 4.825 
12 *493:23 *1946:A 2.395 
13 *493:4 *493:88 10.69 
14 *493:88 *493:94 5.055 
15 *493:94 *1941:A 4.12 
16 *493:94 *1945:A 1.6 
17 *493:88 *493:116 4.655 
18 *493:116 *1939:A 5.955 
19 *493:116 *1967:A 8.79 
*END

*D_NET *494 0.00524068
*CONN
*I *1977:B I *D sky130_fd_sc_hd__and2_2
*I *1978:B I *D sky130_fd_sc_hd__and2_2
*I *1976:B I *D sky130_fd_sc_hd__and2_2
*I *1979:B I *D sky130_fd_sc_hd__and2_2
*I *1974:B I *D sky130_fd_sc_hd__and2_2
*I *1975:B I *D sky130_fd_sc_hd__and2_2
*I *2024:X O *D sky130_fd_sc_hd__clkdlybuf4s25_1
*CAP
1 *1977:B 0.000176278
2 *1978:B 0
3 *1976:B 0.000266025
4 *1979:B 2.08101e-05
5 *1974:B 2.08101e-05
6 *1975:B 0.00021687
7 *2024:X 0
8 *494:47 0.0003214
9 *494:45 0.000569292
10 *494:32 0.000690388
11 *494:23 0.00052927
12 *494:4 0.000393391
13 *1976:B *1978:A 9.50342e-06
14 *494:45 *1978:A 0.000311331
15 *494:47 *1978:A 0.000154488
16 *1974:A *494:23 8.8266e-05
17 *1976:A *1976:B 0
18 *1976:A *494:47 0
19 *1995:D *494:23 8.65961e-05
20 *1995:D *494:32 7.66083e-05
21 *1996:D *1975:B 9.09508e-05
22 *1997:D *1976:B 9.05535e-05
23 *1999:D *494:45 0.000137968
24 *1999:D *494:47 6.55328e-05
25 *2047:A *494:45 0.000124895
26 *422:12 *494:45 9.54399e-05
27 *422:14 *494:45 0.000111285
28 *422:24 *494:45 4.35432e-05
29 *443:22 *494:23 3.89528e-05
30 *444:12 *1975:B 0.000274659
31 *448:14 *1976:B 0
32 *449:19 *1977:B 0.000235573
*RES
1 *2024:X *494:4 1.6 
2 *494:4 *1975:B 6.22 
3 *494:4 *494:23 7.3 
4 *494:23 *1974:B 1.96 
5 *494:23 *494:32 4.935 
6 *494:32 *1979:B 1.96 
7 *494:32 *494:45 10.175 
8 *494:45 *494:47 1.89 
9 *494:47 *1976:B 8.235 
10 *494:47 *1978:B 3.6 
11 *494:45 *1977:B 6.81 
*END

*D_NET *495 0.00550088
*CONN
*I *1885:B I *D sky130_fd_sc_hd__and3_2
*I *1832:B1 I *D sky130_fd_sc_hd__a22oi_2
*I *1833:D I *D sky130_fd_sc_hd__and4_2
*I *1772:B I *D sky130_fd_sc_hd__and3_2
*I *1771:A2 I *D sky130_fd_sc_hd__a21oi_2
*I *1690:B I *D sky130_fd_sc_hd__nand4_2
*I *1691:A2 I *D sky130_fd_sc_hd__a22o_4
*I *2064:X O *D sky130_fd_sc_hd__clkdlybuf4s25_1
*CAP
1 *1885:B 9.93784e-05
2 *1832:B1 0
3 *1833:D 5.37227e-05
4 *1772:B 0.000247015
5 *1771:A2 0
6 *1690:B 0.000375648
7 *1691:A2 0.000189345
8 *2064:X 0
9 *495:26 0.000750014
10 *495:22 0.000234294
11 *495:20 0.000476572
12 *495:18 0.000396562
13 *495:10 0.000202331
14 *495:4 0.000139153
15 *1691:A1 *1691:A2 5.5269e-05
16 *1691:B1 *1690:B 0.000425402
17 *1691:B1 *1691:A2 1.16578e-05
18 *1767:A *495:26 0.000116853
19 *1769:A *495:18 2.34104e-05
20 *1769:B *1885:B 4.66108e-05
21 *1769:B *495:10 2.16232e-05
22 *1770:A1 *495:20 0.000132721
23 *1770:A1 *495:22 7.89611e-05
24 *1770:A1 *495:26 7.63125e-05
25 *1770:A2 *495:18 1.79098e-05
26 *1770:A2 *495:20 9.24049e-05
27 *1832:A1 *495:18 4.82919e-05
28 *1832:A2 *495:18 0.000192125
29 *1835:B *1833:D 0.000122331
30 *1836:A *1885:B 1.91597e-05
31 *1885:A *495:10 0.000140905
32 *169:8 *1690:B 3.09179e-05
33 *246:8 *495:18 4.41506e-05
34 *249:12 *1772:B 1.04217e-05
35 *249:12 *495:18 2.97004e-06
36 *249:12 *495:20 8.05681e-05
37 *308:8 *495:10 9.30717e-05
38 *309:12 *495:18 9.30717e-05
39 *311:12 *1885:B 1.19928e-05
40 *439:81 *495:26 0
41 *441:46 *495:26 6.95335e-05
42 *441:61 *495:20 0
43 *474:8 *495:20 2.03321e-05
44 *474:8 *495:22 5.21545e-05
45 *474:8 *495:26 4.18603e-06
46 *474:10 *495:26 6.4422e-05
47 *474:16 *495:26 0.000127594
48 *485:80 *495:10 9.50342e-06
*RES
1 *2064:X *495:4 1.6 
2 *495:4 *495:10 5.635 
3 *495:10 *495:18 5.825 
4 *495:18 *495:20 4.95 
5 *495:20 *495:22 1.635 
6 *495:22 *495:26 7.46 
7 *495:26 *1691:A2 4.045 
8 *495:26 *1690:B 6.805 
9 *495:22 *1771:A2 3.6 
10 *495:20 *1772:B 6.12 
11 *495:18 *1833:D 4.74 
12 *495:10 *1832:B1 1.6 
13 *495:4 *1885:B 2.74 
*END

*D_NET *496 0.00156413
*CONN
*I *1807:A1 I *D sky130_fd_sc_hd__a21oi_2
*I *1632:A I *D sky130_fd_sc_hd__inv_2
*I *2082:X O *D sky130_fd_sc_hd__buf_2
*CAP
1 *1807:A1 0.000297257
2 *1632:A 0
3 *2082:X 0.000295181
4 *496:10 0.000592438
5 *1719:A *1807:A1 0.00011379
6 *1719:B *1807:A1 8.97564e-05
7 *1720:A *1807:A1 0
8 *1722:A *1807:A1 0
9 *1722:A *496:10 0
10 *1723:B *496:10 0
11 *2082:A *496:10 8.06651e-05
12 *113:14 *496:10 0
13 *116:8 *496:10 0
14 *196:6 *1807:A1 8.49205e-05
15 *468:8 *496:10 1.0124e-05
*RES
1 *2082:X *496:10 8.07 
2 *496:10 *1632:A 3.6 
3 *496:10 *1807:A1 9.27 
*END

*D_NET *497 0.0113177
*CONN
*I *1609:A I *D sky130_fd_sc_hd__and4_2
*I *1603:A2 I *D sky130_fd_sc_hd__a22o_2
*I *1610:A I *D sky130_fd_sc_hd__nand4_2
*I *1622:A1 I *D sky130_fd_sc_hd__a22o_2
*I *1675:A1 I *D sky130_fd_sc_hd__a22oi_2
*I *1627:A I *D sky130_fd_sc_hd__and4_2
*I *1605:B I *D sky130_fd_sc_hd__nand4_2
*I *1698:B I *D sky130_fd_sc_hd__nand4_2
*I *1604:B I *D sky130_fd_sc_hd__and4_2
*I *1699:B2 I *D sky130_fd_sc_hd__a22o_2
*I *2065:X O *D sky130_fd_sc_hd__clkbuf_2
*CAP
1 *1609:A 3.56363e-05
2 *1603:A2 1.55191e-05
3 *1610:A 0
4 *1622:A1 0.000132958
5 *1675:A1 0.000214335
6 *1627:A 6.31424e-05
7 *1605:B 0
8 *1698:B 0
9 *1604:B 0.000609819
10 *1699:B2 0
11 *2065:X 0.00107851
12 *497:90 0.000347293
13 *497:81 0.000231597
14 *497:75 0.000533689
15 *497:71 0.000557127
16 *497:58 0.000349372
17 *497:50 0.00050647
18 *497:25 0.000558048
19 *497:14 0.00132458
20 *1604:B *1699:A2 1.37328e-05
21 *497:50 *1607:B 2.75145e-05
22 *497:50 *1696:B 0.000157588
23 *497:58 *1605:D 8.40213e-05
24 *497:71 *506:30 1.07797e-05
25 *1604:C *497:50 4.82863e-05
26 *1605:A *1603:A2 1.4498e-05
27 *1605:A *497:71 6.10014e-05
28 *1605:C *497:58 0.000119756
29 *1605:C *497:71 1.08758e-05
30 *1606:B *497:71 0
31 *1606:B *497:75 2.97004e-06
32 *1609:D *1609:A 5.83121e-06
33 *1627:B *497:81 9.80943e-06
34 *1627:D *1627:A 2.16917e-05
35 *1675:B1 *1622:A1 4.90031e-05
36 *1675:B1 *1627:A 0.000102029
37 *1675:B1 *1675:A1 0.000159957
38 *1675:B1 *497:81 4.66108e-05
39 *1675:B2 *1675:A1 0
40 *1676:B *497:81 0.000391918
41 *1683:A *497:14 2.75229e-05
42 *1696:A *497:50 0.000156842
43 *1698:A *1604:B 0.000163199
44 *1698:A *497:25 0
45 *1698:D *497:25 0
46 *1699:B1 *497:25 0.000255578
47 *1770:A1 *497:14 8.49205e-05
48 *1776:A *497:14 5.0751e-05
49 *1968:B *1627:A 0.000122325
50 *1968:B *1675:A1 0
51 *89:20 *497:75 7.06865e-05
52 *89:20 *497:81 2.74198e-05
53 *102:10 *1627:A 0.000349587
54 *102:10 *497:81 5.55258e-05
55 *103:12 *497:75 0
56 *105:10 *497:75 0
57 *106:18 *1622:A1 6.16226e-06
58 *106:18 *497:75 1.92979e-05
59 *106:29 *497:81 9.03508e-06
60 *173:8 *497:58 1.91597e-05
61 *173:8 *497:71 1.91597e-05
62 *177:10 *1604:B 1.87074e-05
63 *177:10 *497:25 0.000270784
64 *418:47 *1675:A1 6.69341e-05
65 *441:46 *497:14 4.92341e-05
66 *441:52 *497:14 2.75229e-05
67 *442:77 *497:50 5.4003e-05
68 *442:77 *497:58 0.000159708
69 *442:77 *497:75 0
70 *442:88 *497:50 0.000131408
71 *443:41 *1622:A1 7.12124e-05
72 *443:41 *497:81 0.000150089
73 *443:62 *497:71 0.00013521
74 *443:87 *497:50 2.13396e-05
75 *444:31 *497:75 0.000670342
76 *444:44 *497:50 0
77 *444:44 *497:58 0
78 *445:23 *1622:A1 0
79 *445:23 *1675:A1 0
80 *445:27 *497:25 0.000158066
*RES
1 *2065:X *497:14 18.575 
2 *497:14 *1699:B2 1.6 
3 *497:14 *497:25 5.82 
4 *497:25 *1604:B 5.77 
5 *497:25 *1698:B 1.6 
6 *1604:B *497:50 10.62 
7 *497:50 *497:58 5.735 
8 *497:58 *1605:B 1.6 
9 *497:58 *497:71 5.135 
10 *497:71 *497:75 10.265 
11 *497:75 *497:81 5.31 
12 *497:81 *1627:A 4.81 
13 *497:81 *497:90 2 
14 *497:90 *1675:A1 7.59 
15 *497:90 *1622:A1 6 
16 *497:75 *1610:A 1.6 
17 *497:71 *1603:A2 3.855 
18 *497:50 *1609:A 4.05 
*END

*D_NET *498 0.000710423
*CONN
*I *1924:A1 I *D sky130_fd_sc_hd__a21oi_2
*I *2083:X O *D sky130_fd_sc_hd__buf_2
*CAP
1 *1924:A1 0.000308415
2 *2083:X 0.000308415
3 *1924:B1 *1924:A1 0
4 *1933:B *1924:A1 0
5 *2083:A *1924:A1 6.69341e-05
6 *2084:A *1924:A1 2.66586e-05
*RES
1 *2083:X *1924:A1 11.355 
*END

*D_NET *499 0.000696104
*CONN
*I *1924:A2 I *D sky130_fd_sc_hd__a21oi_2
*I *2084:X O *D sky130_fd_sc_hd__buf_2
*CAP
1 *1924:A2 0.000254019
2 *2084:X 0.000254019
3 *1925:A_N *1924:A2 1.61831e-05
4 *1925:B *1924:A2 0.000164874
5 *1926:A *1924:A2 7.00889e-06
6 *1928:B *1924:A2 0
*RES
1 *2084:X *1924:A2 11.79 
*END

*D_NET *500 0.00181335
*CONN
*I *1748:B I *D sky130_fd_sc_hd__nand2b_4
*I *2085:X O *D sky130_fd_sc_hd__buf_6
*CAP
1 *1748:B 0.000358491
2 *2085:X 0.000358491
3 *1658:C *1748:B 0
4 *1747:A2 *1748:B 0.00027209
5 *1748:A_N *1748:B 0
6 *1817:A2 *1748:B 1.47256e-05
7 *2085:A *1748:B 5.05521e-05
8 *121:10 *1748:B 0
9 *468:8 *1748:B 0.000759002
*RES
1 *2085:X *1748:B 16.455 
*END

*D_NET *501 0.00129942
*CONN
*I *1759:B I *D sky130_fd_sc_hd__nor3_2
*I *1758:A2 I *D sky130_fd_sc_hd__o21a_2
*I *2086:X O *D sky130_fd_sc_hd__buf_2
*CAP
1 *1759:B 0.000179738
2 *1758:A2 0
3 *2086:X 0.000193991
4 *501:12 0.000373729
5 *1732:B1 *501:12 0
6 *1734:B *501:12 2.78732e-05
7 *1735:A *501:12 2.45442e-05
8 *1759:A *1759:B 0.000240149
9 *2086:A *501:12 5.98537e-05
10 *125:19 *501:12 5.83121e-06
11 *208:10 *501:12 0
12 *208:34 *1759:B 3.26889e-05
13 *211:8 *1759:B 8.49205e-05
14 *235:10 *1759:B 7.60983e-05
*RES
1 *2086:X *501:12 8.12 
2 *501:12 *1758:A2 1.6 
3 *501:12 *1759:B 5.53 
*END

*D_NET *502 0.00154282
*CONN
*I *1818:B I *D sky130_fd_sc_hd__xor2_2
*I *2087:X O *D sky130_fd_sc_hd__buf_6
*CAP
1 *1818:B 0.000456248
2 *2087:X 0.000456248
3 *1813:A *1818:B 1.47347e-05
4 *1813:B *1818:B 8.57024e-05
5 *1816:A *1818:B 0.000105841
6 *1818:A *1818:B 0
7 *1866:B *1818:B 0.000337143
8 *2087:A *1818:B 4.35348e-05
9 *294:12 *1818:B 4.33681e-05
*RES
1 *2087:X *1818:B 14.81 
*END

*D_NET *503 0.000236349
*CONN
*I *1907:B I *D sky130_fd_sc_hd__xnor2_2
*I *2088:X O *D sky130_fd_sc_hd__buf_6
*CAP
1 *1907:B 8.34489e-05
2 *2088:X 8.34489e-05
3 *1927:A1 *1907:B 6.9451e-05
*RES
1 *2088:X *1907:B 9.09 
*END

*D_NET *504 0.000502538
*CONN
*I *1923:B I *D sky130_fd_sc_hd__xor2_2
*I *2089:X O *D sky130_fd_sc_hd__buf_2
*CAP
1 *1923:B 0.000164043
2 *2089:X 0.000164043
3 *1923:A *1923:B 0.000164287
4 *1932:B *1923:B 1.01661e-05
*RES
1 *2089:X *1923:B 9.275 
*END

*D_NET *505 0.000551391
*CONN
*I *1751:A2 I *D sky130_fd_sc_hd__o21ai_4
*I *2090:X O *D sky130_fd_sc_hd__buf_2
*CAP
1 *1751:A2 0.000195834
2 *2090:X 0.000195834
3 *228:8 *1751:A2 0.000159722
*RES
1 *2090:X *1751:A2 6.785 
*END

*D_NET *506 0.0140574
*CONN
*I *1781:B I *D sky130_fd_sc_hd__and4_2
*I *1697:A I *D sky130_fd_sc_hd__nand2_2
*I *1698:C I *D sky130_fd_sc_hd__nand4_2
*I *1699:A2 I *D sky130_fd_sc_hd__a22o_2
*I *1604:D I *D sky130_fd_sc_hd__and4_2
*I *1609:C I *D sky130_fd_sc_hd__and4_2
*I *1605:D I *D sky130_fd_sc_hd__nand4_2
*I *1603:B2 I *D sky130_fd_sc_hd__a22o_2
*I *1610:C I *D sky130_fd_sc_hd__nand4_2
*I *1622:B1 I *D sky130_fd_sc_hd__a22o_2
*I *2066:X O *D sky130_fd_sc_hd__clkbuf_2
*CAP
1 *1781:B 0
2 *1697:A 0.000209425
3 *1698:C 0
4 *1699:A2 0.00011729
5 *1604:D 0.000123253
6 *1609:C 3.38648e-05
7 *1605:D 5.65593e-05
8 *1603:B2 0
9 *1610:C 5.80008e-05
10 *1622:B1 0.000173291
11 *2066:X 0.000677933
12 *506:118 0.000250728
13 *506:96 0.00011729
14 *506:36 0.000425506
15 *506:30 0.000264763
16 *506:24 0.000216884
17 *506:22 0.000243494
18 *506:20 0.000794743
19 *506:12 0.000798129
20 *506:10 0.000965728
21 *1604:D *1607:B 7.94204e-05
22 *1697:A *1781:C 4.82919e-05
23 *1697:A *512:68 4.21889e-05
24 *506:10 *1781:C 5.11148e-06
25 *506:10 *512:16 0.00131717
26 *506:20 *1696:B 4.41506e-05
27 *506:22 *1607:B 0.000252282
28 *1604:B *1699:A2 1.37328e-05
29 *1604:C *1604:D 8.23457e-05
30 *1605:C *1605:D 3.25635e-05
31 *1609:D *1609:C 4.82919e-05
32 *1610:D *1610:C 1.52835e-05
33 *1622:A2 *1622:B1 2.66362e-05
34 *1622:B2 *1622:B1 0.000196376
35 *1624:A *506:36 0.000159964
36 *1698:D *1699:A2 1.4555e-05
37 *1699:A1 *1699:A2 6.52393e-05
38 *1699:B1 *1699:A2 0.000124444
39 *1783:A1 *506:10 0.000178496
40 *1783:A1 *506:12 5.74016e-05
41 *1783:A2 *506:10 8.53113e-06
42 *1888:A2 *506:10 0.000176288
43 *1888:C1 *506:10 0.000122797
44 *84:10 *1605:D 0
45 *86:10 *506:22 0
46 *173:8 *1605:D 0.00016063
47 *258:10 *1697:A 4.99619e-05
48 *313:6 *506:10 5.05437e-05
49 *442:32 *1610:C 5.34512e-05
50 *442:32 *506:36 9.82856e-06
51 *442:36 *1622:B1 4.66108e-05
52 *442:49 *1610:C 1.80324e-05
53 *442:49 *1622:B1 1.88904e-05
54 *442:77 *506:24 0.000155457
55 *442:77 *506:30 0.000132842
56 *442:77 *506:36 0.000404018
57 *443:41 *1622:B1 7.21296e-06
58 *443:58 *1622:B1 0.000112349
59 *443:58 *506:30 4.66108e-05
60 *443:58 *506:36 0.00060787
61 *443:62 *506:24 7.23602e-05
62 *443:62 *506:30 0.000112123
63 *443:81 *506:24 0.000155176
64 *443:87 *1604:D 6.21553e-05
65 *443:87 *506:22 0.000348746
66 *443:87 *506:24 5.16418e-05
67 *444:52 *506:20 0.000457914
68 *444:67 *506:12 0.000869448
69 *444:67 *506:20 3.09233e-05
70 *444:76 *506:10 0.000332737
71 *444:76 *506:12 0.000101822
72 *445:23 *506:12 1.70935e-05
73 *445:23 *506:20 6.28843e-05
74 *445:27 *1699:A2 3.96653e-05
75 *445:51 *506:12 0.000450379
76 *445:58 *1697:A 0.000238137
77 *445:73 *1697:A 4.66108e-05
78 *497:58 *1605:D 8.40213e-05
79 *497:71 *506:30 1.07797e-05
*RES
1 *2066:X *506:10 22.125 
2 *506:10 *506:12 11.07 
3 *506:12 *506:20 11.695 
4 *506:20 *506:22 4.185 
5 *506:22 *506:24 3.165 
6 *506:24 *506:30 4.085 
7 *506:30 *506:36 9.5675 
8 *506:36 *1622:B1 7.0575 
9 *506:36 *1610:C 4.8525 
10 *506:30 *1603:B2 1.6 
11 *506:24 *1605:D 5.445 
12 *506:22 *1609:C 4.05 
13 *506:20 *1604:D 5.61 
14 *506:12 *506:96 2 
15 *506:96 *1699:A2 4.405 
16 *506:96 *1698:C 1.6 
17 *506:10 *506:118 2.45 
18 *506:118 *1697:A 5.875 
19 *506:118 *1781:B 1.6 
*END

*D_NET *507 0.00024948
*CONN
*I *1870:B I *D sky130_fd_sc_hd__xor2_2
*I *2091:X O *D sky130_fd_sc_hd__buf_6
*CAP
1 *1870:B 0.00012474
2 *2091:X 0.00012474
*RES
1 *2091:X *1870:B 3.3925 
*END

*D_NET *508 0.000296611
*CONN
*I *1708:B I *D sky130_fd_sc_hd__nand3_2
*I *2092:X O *D sky130_fd_sc_hd__buf_2
*CAP
1 *1708:B 0.000148305
2 *2092:X 0.000148305
*RES
1 *2092:X *1708:B 5.3 
*END

*D_NET *509 0.000296313
*CONN
*I *1690:D I *D sky130_fd_sc_hd__nand4_2
*I *2093:X O *D sky130_fd_sc_hd__buf_2
*CAP
1 *1690:D 0.00011805
2 *2093:X 0.00011805
3 *1776:A *1690:D 5.46798e-05
4 *166:8 *1690:D 5.53249e-06
5 *439:81 *1690:D 0
*RES
1 *2093:X *1690:D 9.03 
*END

*D_NET *510 0.00043322
*CONN
*I *1881:A2 I *D sky130_fd_sc_hd__a21oi_2
*I *2094:X O *D sky130_fd_sc_hd__buf_2
*CAP
1 *1881:A2 0.000142698
2 *2094:X 0.000142698
3 *1842:B *1881:A2 2.8185e-05
4 *2094:A *1881:A2 0.00011964
*RES
1 *2094:X *1881:A2 6.08 
*END

*D_NET *511 0.00199142
*CONN
*I *1745:A2 I *D sky130_fd_sc_hd__o21ai_2
*I *2095:X O *D sky130_fd_sc_hd__buf_2
*CAP
1 *1745:A2 0.000573845
2 *2095:X 0.000573845
3 *1746:C1 *1745:A2 0.000309607
4 *1817:B1 *1745:A2 0.000103462
5 *1866:B *1745:A2 0.000273015
6 *223:6 *1745:A2 4.82863e-05
7 *294:12 *1745:A2 0.000109364
*RES
1 *2095:X *1745:A2 18.33 
*END

*D_NET *512 0.010142
*CONN
*I *1700:A2 I *D sky130_fd_sc_hd__a22o_2
*I *1701:B I *D sky130_fd_sc_hd__nand4_2
*I *1607:B I *D sky130_fd_sc_hd__and2_2
*I *1823:A1 I *D sky130_fd_sc_hd__a22o_2
*I *1782:B I *D sky130_fd_sc_hd__nand2_2
*I *1781:C I *D sky130_fd_sc_hd__and4_2
*I *2067:X O *D sky130_fd_sc_hd__dlymetal6s2s_1
*CAP
1 *1700:A2 6.18993e-05
2 *1701:B 0
3 *1607:B 0.000437741
4 *1823:A1 8.85931e-05
5 *1782:B 0.000106397
6 *1781:C 0.000569732
7 *2067:X 0.00123539
8 *512:70 0.000528852
9 *512:68 0.000589908
10 *512:33 0.000314066
11 *512:16 0.0014873
12 *1607:B *1696:B 7.07957e-05
13 *512:68 *1696:B 0.000223278
14 *512:68 *514:14 0.00013994
15 *1604:C *1607:B 2.39856e-05
16 *1604:D *1607:B 7.94204e-05
17 *1697:A *1781:C 4.82919e-05
18 *1697:A *512:68 4.21889e-05
19 *1700:B2 *1607:B 0
20 *1700:B2 *512:68 0
21 *1700:B2 *512:70 0
22 *1703:A2 *512:68 8.53113e-06
23 *1703:A2 *512:70 0.000109016
24 *1783:A1 *1781:C 0.00031916
25 *1783:A1 *512:68 0.000311288
26 *1783:A2 *1781:C 1.70935e-05
27 *1783:A2 *1823:A1 5.16348e-05
28 *1783:A2 *512:33 4.5783e-05
29 *1783:B1 *1781:C 0.000203002
30 *1784:A *512:68 0
31 *1785:A *512:68 1.26548e-05
32 *1788:A1 *1607:B 0
33 *1823:B2 *1823:A1 0.000210151
34 *1824:A *1823:A1 9.50342e-06
35 *1825:A2 *1823:A1 8.6099e-05
36 *1825:B1 *1823:A1 1.01661e-05
37 *1834:A *512:16 0.000130072
38 *1837:A *512:16 5.16348e-05
39 *1837:B *512:16 9.24127e-05
40 *176:8 *1607:B 0
41 *177:10 *1607:B 0
42 *178:8 *1700:A2 5.05437e-05
43 *179:22 *1607:B 3.25831e-05
44 *179:22 *512:70 5.33085e-05
45 *256:14 *1700:A2 2.32193e-05
46 *258:10 *1781:C 0.000116158
47 *259:6 *1782:B 1.08758e-05
48 *259:6 *512:33 4.66108e-05
49 *259:34 *512:33 7.40446e-05
50 *262:8 *512:68 0
51 *309:18 *512:16 5.98004e-06
52 *443:87 *1607:B 1.07797e-05
53 *443:112 *1607:B 7.09258e-05
54 *444:76 *1823:A1 5.33085e-05
55 *445:58 *512:68 0.000238137
56 *445:73 *1781:C 0
57 *445:73 *1823:A1 0
58 *445:73 *512:33 0
59 *445:73 *512:68 3.74161e-05
60 *497:50 *1607:B 2.75145e-05
61 *506:10 *1781:C 5.11148e-06
62 *506:10 *512:16 0.00131717
63 *506:22 *1607:B 0.000252282
*RES
1 *2067:X *512:16 25.99 
2 *512:16 *1781:C 8.235 
3 *512:16 *512:33 4.265 
4 *512:33 *1782:B 3.1 
5 *512:33 *1823:A1 8.87 
6 *1781:C *512:68 14.43 
7 *512:68 *512:70 1.89 
8 *512:70 *1607:B 16.015 
9 *512:70 *1701:B 3.6 
10 *512:68 *1700:A2 4.89 
*END

*D_NET *513 0.0022024
*CONN
*I *1623:B1 I *D sky130_fd_sc_hd__a22o_2
*I *1612:C I *D sky130_fd_sc_hd__nand4_2
*I *1613:B2 I *D sky130_fd_sc_hd__a22oi_2
*I *2096:X O *D sky130_fd_sc_hd__buf_2
*CAP
1 *1623:B1 6.31063e-05
2 *1612:C 0
3 *1613:B2 8.33112e-06
4 *2096:X 0.000218702
5 *513:23 0.000177548
6 *513:10 0.000341475
7 *1612:B *1623:B1 1.91597e-05
8 *1612:B *513:23 1.37328e-05
9 *1612:D *513:23 0.000122801
10 *1613:B1 *513:23 1.37328e-05
11 *1615:A *513:10 0.000141599
12 *93:19 *513:10 0
13 *438:67 *513:10 0
14 *439:32 *1623:B1 0.000136877
15 *439:34 *1613:B2 2.16833e-05
16 *439:34 *513:23 0.000499748
17 *439:40 *513:10 0
18 *439:49 *513:10 0
19 *440:25 *513:10 0
20 *441:19 *513:10 0
21 *454:43 *1613:B2 4.99619e-05
22 *454:43 *1623:B1 4.66108e-05
23 *454:43 *513:23 0.000211174
24 *454:49 *1623:B1 0.000116158
*RES
1 *2096:X *513:10 9.275 
2 *513:10 *1613:B2 2.05 
3 *513:10 *513:23 5.31 
4 *513:23 *1612:C 1.6 
5 *513:23 *1623:B1 7.685 
*END

*D_NET *514 0.00800121
*CONN
*I *1824:B I *D sky130_fd_sc_hd__nand2_2
*I *1823:B1 I *D sky130_fd_sc_hd__a22o_2
*I *1879:B I *D sky130_fd_sc_hd__and3_2
*I *1696:B I *D sky130_fd_sc_hd__nand2_2
*I *1784:B I *D sky130_fd_sc_hd__nand2_2
*I *2068:X O *D sky130_fd_sc_hd__clkdlybuf4s25_1
*CAP
1 *1824:B 0.000193923
2 *1823:B1 0.000108148
3 *1879:B 0
4 *1696:B 0.00051461
5 *1784:B 0.000229845
6 *2068:X 0.000677112
7 *514:51 0.000462229
8 *514:42 0.000226815
9 *514:14 0.00101436
10 *514:10 0.00101367
11 *1607:B *1696:B 7.07957e-05
12 *1696:A *1696:B 8.40213e-05
13 *1702:B *1696:B 7.18738e-05
14 *1703:A2 *1696:B 0.00011852
15 *1785:A *514:14 0.000316813
16 *1785:B *1784:B 8.65961e-05
17 *1786:B *514:14 0
18 *1824:A *1823:B1 3.27494e-05
19 *1825:A2 *1824:B 0.000158297
20 *1827:B *514:10 7.70828e-05
21 *1827:B *514:14 0.000109009
22 *1880:B *1824:B 0
23 *1880:B *514:10 0.000114492
24 *1882:B *514:10 3.64998e-06
25 *1911:A1 *1824:B 0
26 *1911:B1 *1824:B 4.66108e-05
27 *1915:B *1823:B1 3.96737e-05
28 *1915:B *514:42 2.20732e-05
29 *1915:B *514:51 0.000199679
30 *2068:A *514:10 2.11084e-05
31 *83:12 *1696:B 0.000159964
32 *179:22 *1696:B 7.47145e-05
33 *257:10 *1696:B 0
34 *259:34 *514:10 5.29131e-05
35 *259:34 *514:14 5.2089e-05
36 *260:10 *514:14 0.000139238
37 *261:6 *1784:B 4.82863e-05
38 *262:8 *1696:B 0
39 *302:10 *514:14 0.000342254
40 *303:12 *514:10 5.43211e-05
41 *366:12 *1824:B 4.29016e-05
42 *443:87 *1696:B 0.00013521
43 *443:112 *1696:B 4.96975e-05
44 *445:73 *514:14 0.000105161
45 *445:87 *1823:B1 5.12719e-05
46 *445:87 *1824:B 2.7881e-05
47 *445:87 *514:51 8.65961e-05
48 *497:50 *1696:B 0.000157588
49 *506:20 *1696:B 4.41506e-05
50 *512:68 *1696:B 0.000223278
51 *512:68 *514:14 0.00013994
*RES
1 *2068:X *514:10 13.065 
2 *514:10 *514:14 11.285 
3 *514:14 *1784:B 5.08 
4 *514:14 *1696:B 18.095 
5 *514:10 *514:42 2.795 
6 *514:42 *1879:B 1.6 
7 *514:42 *514:51 3.48 
8 *514:51 *1823:B1 3.445 
9 *514:51 *1824:B 9.335 
*END

*D_NET *515 0.00662226
*CONN
*I *1967:B I *D sky130_fd_sc_hd__and2_2
*I *1950:B1 I *D sky130_fd_sc_hd__a211o_2
*I *2034:X O *D sky130_fd_sc_hd__dlygate4sd3_1
*CAP
1 *1967:B 0.00107515
2 *1950:B1 0.0011469
3 *2034:X 0
4 *515:4 0.00222205
5 *1950:B1 *2001:D 5.13155e-05
6 *1967:B *1953:A 0.000107658
7 *1602:A *1950:B1 0
8 *1943:B *1950:B1 2.75145e-05
9 *1950:A1 *1950:B1 8.7152e-06
10 *1950:C1 *1950:B1 9.84138e-05
11 *1965:A0 *1950:B1 0
12 *1967:A *1967:B 0.000385327
13 *2007:CLK *1950:B1 3.80606e-05
14 *2007:D *1950:B1 0.000327703
15 *2009:D *1967:B 1.43717e-05
16 *2014:A *1950:B1 2.71494e-05
17 *2035:A *1950:B1 3.48121e-05
18 *2039:A *1950:B1 2.68506e-05
19 *2045:A *1967:B 4.82919e-05
20 *3:34 *1950:B1 0
21 *416:25 *1967:B 7.06865e-05
22 *418:81 *1950:B1 6.66464e-06
23 *418:81 *1967:B 1.7386e-05
24 *419:8 *1950:B1 0.000532937
25 *419:24 *1950:B1 2.03321e-05
26 *419:33 *1950:B1 5.00526e-05
27 *472:10 *1950:B1 1.56406e-05
28 *491:35 *1967:B 0.000268278
*RES
1 *2034:X *515:4 1.6 
2 *515:4 *1950:B1 22.91 
3 *515:4 *1967:B 22.79 
*END

*D_NET *516 0.000534379
*CONN
*I *2001:D I *D sky130_fd_sc_hd__dfxtp_2
*I *2035:X O *D sky130_fd_sc_hd__dlygate4sd3_1
*CAP
1 *2001:D 0.00012435
2 *2035:X 0.00012435
3 *1601:A *2001:D 7.28794e-05
4 *1950:B1 *2001:D 5.13155e-05
5 *419:24 *2001:D 0.000139697
6 *491:91 *2001:D 2.17884e-05
*RES
1 *2035:X *2001:D 9.79875 
*END

*D_NET *517 0.00335922
*CONN
*I *1938:A I *D sky130_fd_sc_hd__and2_2
*I *1952:A I *D sky130_fd_sc_hd__or4_2
*I *2036:X O *D sky130_fd_sc_hd__dlygate4sd3_1
*CAP
1 *1938:A 1.72301e-05
2 *1952:A 0.000777814
3 *2036:X 0.000795044
4 *1952:A *1939:B 0.000482595
5 *1952:A *1952:D 0.000660548
6 *1938:B *1938:A 4.99619e-05
7 *1938:B *1952:A 0.000505378
8 *2007:D *1952:A 7.06476e-05
9 *2036:A *1952:A 0
*RES
1 *2036:X *1952:A 21.2343 
2 *2036:X *1938:A 3.65 
*END

*D_NET *518 0.00206358
*CONN
*I *1955:A I *D sky130_fd_sc_hd__or2_2
*I *1940:B I *D sky130_fd_sc_hd__and2_2
*I *2037:X O *D sky130_fd_sc_hd__dlygate4sd3_1
*CAP
1 *1955:A 0.000474458
2 *1940:B 0.000332784
3 *2037:X 0
4 *518:6 0.000807242
5 *1940:B *1947:B 0
6 *1940:B *1948:B 0
7 *1954:B *1955:A 0.000332274
8 *2010:D *1940:B 0.00011682
*RES
1 *2037:X *518:6 3.6 
2 *518:6 *1940:B 9.105 
3 *518:6 *1955:A 11.745 
*END

*D_NET *519 0.00844228
*CONN
*I *1666:A1 I *D sky130_fd_sc_hd__a22o_2
*I *1678:A I *D sky130_fd_sc_hd__and3_2
*I *1654:A I *D sky130_fd_sc_hd__nand4_2
*I *1934:A1 I *D sky130_fd_sc_hd__a21oi_2
*I *1648:A2 I *D sky130_fd_sc_hd__a22o_2
*I *1653:A I *D sky130_fd_sc_hd__and4_2
*I *1730:A I *D sky130_fd_sc_hd__and3_2
*I *1646:A I *D sky130_fd_sc_hd__and3_2
*I *1731:A1 I *D sky130_fd_sc_hd__a21oi_2
*I *2069:X O *D sky130_fd_sc_hd__clkdlybuf4s25_1
*CAP
1 *1666:A1 5.32394e-05
2 *1678:A 0.000144745
3 *1654:A 0.000241752
4 *1934:A1 0.000162122
5 *1648:A2 0.000162725
6 *1653:A 0.000218481
7 *1730:A 0
8 *1646:A 0.000245761
9 *1731:A1 7.36107e-05
10 *2069:X 0.000130204
11 *519:95 0.000470995
12 *519:91 0.000170761
13 *519:76 0.000195146
14 *519:40 0.000259978
15 *519:38 0.000375176
16 *519:12 0.000319371
17 *519:10 0.000301159
18 *1648:A1 *1648:A2 0.000112123
19 *1648:A1 *519:38 3.57924e-05
20 *1648:B1 *1648:A2 1.08758e-05
21 *1654:C *1654:A 4.82863e-05
22 *1654:C *519:95 0
23 *1654:D *1654:A 4.82919e-05
24 *1666:A2 *1666:A1 7.02973e-05
25 *1666:B1 *1666:A1 4.77807e-05
26 *1666:B2 *1666:A1 0.000150081
27 *1666:B2 *519:91 4.77807e-05
28 *1678:B *1678:A 0
29 *1731:B1 *1731:A1 0.000164874
30 *1732:B2 *519:10 0
31 *1737:A *1648:A2 7.32222e-05
32 *2049:A *519:10 5.4256e-05
33 *2049:A *519:38 4.24292e-06
34 *2072:A *1646:A 0.00011686
35 *2072:A *1648:A2 2.34423e-05
36 *2072:A *519:10 2.97004e-06
37 *2072:A *519:38 0.00011282
38 *2072:A *519:95 0.000160658
39 *132:6 *1666:A1 1.54665e-05
40 *133:14 *1654:A 3.70488e-05
41 *145:12 *1678:A 0
42 *158:10 *1678:A 4.82863e-05
43 *209:6 *1646:A 6.32842e-05
44 *209:6 *1731:A1 0.000108761
45 *215:6 *1648:A2 3.93607e-05
46 *383:12 *1678:A 0
47 *383:12 *1934:A1 7.45968e-05
48 *446:38 *1934:A1 0.000435184
49 *446:38 *519:91 0.000148919
50 *447:35 *1653:A 0.000670355
51 *447:37 *1653:A 0.000112123
52 *447:37 *519:38 8.89019e-05
53 *447:43 *1731:A1 0.000277223
54 *447:43 *519:38 0.000101325
55 *447:113 *1653:A 2.85623e-05
56 *447:113 *1666:A1 0.000237249
57 *447:113 *1934:A1 4.82919e-05
58 *447:113 *519:91 0.000198934
59 *450:10 *1934:A1 1.26626e-05
60 *455:49 *1648:A2 3.09233e-05
61 *455:49 *1653:A 0.00067117
62 *455:60 *1666:A1 2.05691e-05
63 *465:61 *1646:A 0.000163204
64 *465:63 *1646:A 0
*RES
1 *2069:X *519:10 5.685 
2 *519:10 *519:12 2 
3 *519:12 *1731:A1 4.81 
4 *519:12 *1646:A 10.31 
5 *519:10 *519:38 4.44 
6 *519:38 *519:40 0.45 
7 *519:40 *1730:A 3.6 
8 *519:40 *1653:A 13.14 
9 *519:38 *1648:A2 7.11375 
10 *1653:A *519:76 1.6 
11 *519:76 *1934:A1 10.265 
12 *519:76 *519:91 1.83 
13 *519:91 *519:95 3.89 
14 *519:95 *1654:A 7.515 
15 *519:95 *1678:A 5.94 
16 *519:91 *1666:A1 4.48 
*END

*D_NET *520 0.00168605
*CONN
*I *1952:C I *D sky130_fd_sc_hd__or4_2
*I *1945:B I *D sky130_fd_sc_hd__and2_2
*I *2038:X O *D sky130_fd_sc_hd__dlygate4sd3_1
*CAP
1 *1952:C 6.47342e-07
2 *1945:B 0.00012395
3 *2038:X 7.96359e-05
4 *520:16 0.000204233
5 *1945:B *1952:D 1.07939e-05
6 *1945:B *522:6 0.000164874
7 *520:16 *1952:D 0.000138794
8 *1939:A *520:16 5.26286e-05
9 *1944:A *1945:B 0.000357374
10 *1944:A *520:16 3.49981e-05
11 *1967:A *520:16 3.86607e-05
12 *2040:A *1945:B 0.000203178
13 *493:94 *1945:B 0.000203924
14 *493:116 *1945:B 4.85494e-05
15 *493:116 *520:16 2.38115e-05
*RES
1 *2038:X *520:16 8.2625 
2 *520:16 *1945:B 8.0275 
3 *520:16 *1952:C 1.7275 
*END

*D_NET *521 0.00265269
*CONN
*I *1955:B I *D sky130_fd_sc_hd__or2_2
*I *1947:B I *D sky130_fd_sc_hd__and2_2
*I *2039:X O *D sky130_fd_sc_hd__dlygate4sd3_1
*CAP
1 *1955:B 0.000417066
2 *1947:B 0.000449614
3 *2039:X 0.000115524
4 *521:8 0.000982204
5 *1940:B *1947:B 0
6 *1958:B *1955:B 0
7 *1965:S *521:8 6.34721e-05
8 *2026:A *1955:B 0.000287182
9 *2039:A *1947:B 2.67022e-05
10 *2039:A *1955:B 2.03321e-05
11 *491:16 *1947:B 0.000290598
*RES
1 *2039:X *521:8 5.085 
2 *521:8 *1947:B 11.355 
3 *521:8 *1955:B 10.905 
*END

*D_NET *522 0.00233405
*CONN
*I *1953:A I *D sky130_fd_sc_hd__nor3_2
*I *1941:B I *D sky130_fd_sc_hd__and2_2
*I *2040:X O *D sky130_fd_sc_hd__dlygate4sd3_1
*CAP
1 *1953:A 0.000345678
2 *1941:B 3.59718e-05
3 *2040:X 4.81223e-05
4 *522:6 0.000429772
5 *1941:A *1941:B 5.05437e-05
6 *1941:A *522:6 7.35813e-05
7 *1944:A *1941:B 8.8266e-05
8 *1944:A *522:6 0.000344737
9 *1945:B *522:6 0.000164874
10 *1967:B *1953:A 0.000107658
11 *2009:CLK *1953:A 0
12 *2009:D *1953:A 0
13 *2034:A *1953:A 0.000210151
14 *416:25 *1953:A 9.37731e-05
15 *416:46 *1953:A 0.000204661
16 *421:35 *1953:A 0
17 *491:35 *1953:A 9.72092e-05
18 *493:94 *522:6 3.90495e-05
*RES
1 *2040:X *522:6 4.81 
2 *522:6 *1941:B 2.755 
3 *522:6 *1953:A 14.12 
*END

*D_NET *523 0.00317781
*CONN
*I *1942:B I *D sky130_fd_sc_hd__and2_2
*I *1951:A2 I *D sky130_fd_sc_hd__o41a_2
*I *2041:X O *D sky130_fd_sc_hd__dlygate4sd3_1
*CAP
1 *1942:B 0.000424278
2 *1951:A2 0.000297621
3 *2041:X 0.000164192
4 *523:10 0.00088609
5 *1951:A2 *1949:B 0.00054169
6 *1942:A *1942:B 0.000598841
7 *2013:A *1942:B 1.08677e-05
8 *2028:A *523:10 1.56428e-05
9 *2041:A *523:10 0
10 *3:46 *1942:B 1.03502e-06
11 *418:15 *523:10 0
12 *418:67 *523:10 0
13 *429:10 *1951:A2 0.000161337
14 *429:14 *1951:A2 5.53249e-06
15 *443:22 *523:10 7.06865e-05
*RES
1 *2041:X *523:10 6.195 
2 *523:10 *1951:A2 11.355 
3 *523:10 *1942:B 9.8175 
*END

*D_NET *524 0.00114851
*CONN
*I *1980:D I *D sky130_fd_sc_hd__dfxtp_2
*I *2042:X O *D sky130_fd_sc_hd__dlygate4sd3_1
*CAP
1 *1980:D 0.000397309
2 *2042:X 0.000397309
3 *1980:D *526:10 0.000113431
4 *2005:CLK *1980:D 0.000110842
5 *2044:A *1980:D 8.41384e-05
6 *421:54 *1980:D 4.54805e-05
*RES
1 *2042:X *1980:D 14.145 
*END

*D_NET *525 0.00261448
*CONN
*I *1949:B I *D sky130_fd_sc_hd__and2_2
*I *2043:X O *D sky130_fd_sc_hd__dlygate4sd3_1
*CAP
1 *1949:B 0.000623504
2 *2043:X 0.000623504
3 *1951:A2 *1949:B 0.00054169
4 *2027:A *1949:B 0.000195986
5 *408:16 *1949:B 0.000237243
6 *421:54 *1949:B 9.2986e-05
7 *425:14 *1949:B 0.000161837
8 *429:14 *1949:B 8.09021e-06
9 *493:10 *1949:B 1.89685e-05
10 *493:23 *1949:B 0.000110676
*RES
1 *2043:X *1949:B 22.425 
*END

*D_NET *526 0.00298573
*CONN
*I *1946:B I *D sky130_fd_sc_hd__and2_2
*I *1952:D I *D sky130_fd_sc_hd__or4_2
*I *2044:X O *D sky130_fd_sc_hd__dlygate4sd3_1
*CAP
1 *1946:B 3.34843e-05
2 *1952:D 0.00045269
3 *2044:X 0.000196435
4 *526:10 0.000682609
5 *1939:A *1952:D 1.8325e-05
6 *1944:A *1952:D 4.37221e-05
7 *1945:B *1952:D 1.07939e-05
8 *1952:A *1952:D 0.000660548
9 *1952:B *1952:D 0
10 *1967:A *1952:D 2.0413e-05
11 *1980:D *526:10 0.000113431
12 *2005:CLK *526:10 0.000159179
13 *2005:D *526:10 9.37846e-05
14 *2036:A *1952:D 0
15 *408:16 *1952:D 0
16 *418:67 *1952:D 0.000183481
17 *418:67 *526:10 0.000167944
18 *418:81 *1952:D 1.00941e-05
19 *425:12 *1952:D 0
20 *520:16 *1952:D 0.000138794
*RES
1 *2044:X *526:10 9.105 
2 *526:10 *1952:D 14.97 
3 *526:10 *1946:B 4.05 
*END

*D_NET *527 0.00236418
*CONN
*I *1953:B I *D sky130_fd_sc_hd__nor3_2
*I *1948:B I *D sky130_fd_sc_hd__and2_2
*I *2045:X O *D sky130_fd_sc_hd__dlygate4sd3_1
*CAP
1 *1953:B 0.000228823
2 *1948:B 0.00028887
3 *2045:X 0.000158333
4 *527:8 0.000676027
5 *1940:B *1948:B 0
6 *1964:C *1953:B 9.02174e-05
7 *2003:D *1948:B 0.00025266
8 *2010:D *1948:B 0
9 *2045:A *1948:B 8.08153e-06
10 *408:16 *1953:B 5.67938e-05
11 *409:8 *1953:B 8.65961e-05
12 *416:25 *527:8 0.000234354
13 *418:81 *1953:B 1.03755e-05
14 *419:10 *1948:B 2.43962e-05
15 *419:10 *1953:B 4.04619e-05
16 *419:16 *1948:B 8.47289e-05
17 *419:91 *1953:B 9.40875e-05
18 *491:31 *1948:B 2.937e-05
19 *491:35 *1948:B 0
20 *491:35 *1953:B 0
*RES
1 *2045:X *527:8 5.775 
2 *527:8 *1948:B 9.555 
3 *527:8 *1953:B 8.61 
*END

*D_NET *528 0.00137321
*CONN
*I *1939:B I *D sky130_fd_sc_hd__and2_2
*I *2046:X O *D sky130_fd_sc_hd__dlygate4sd3_1
*CAP
1 *1939:B 0.000445308
2 *2046:X 0.000445308
3 *1944:B *1939:B 0
4 *1952:A *1939:B 0.000482595
5 *2007:D *1939:B 0
6 *2036:A *1939:B 0
7 *421:12 *1939:B 0
*RES
1 *2046:X *1939:B 14.745 
*END

*D_NET *529 0.00100913
*CONN
*I *1978:A I *D sky130_fd_sc_hd__and2_2
*I *2047:X O *D sky130_fd_sc_hd__dlygate4sd3_1
*CAP
1 *1978:A 0.000196099
2 *2047:X 0.000196099
3 *1976:B *1978:A 9.50342e-06
4 *2032:A *1978:A 0.000141606
5 *2047:A *1978:A 0
6 *448:14 *1978:A 0
7 *494:45 *1978:A 0.000311331
8 *494:47 *1978:A 0.000154488
*RES
1 *2047:X *1978:A 12.66 
*END
