*SPEF "ieee 1481-1999"
*DESIGN "self_diagnosing_fir"
*DATE "23:06:15 Friday September 18, 2026"
*VENDOR "The OpenROAD Project"
*PROGRAM "OpenROAD"
*VERSION "dcf36133a369abc8f3c5e5738cd4d82e4903c0e0"
*DESIGN_FLOW "NAME_SCOPE LOCAL" "PIN_CAP NONE"
*DIVIDER /
*DELIMITER :
*BUS_DELIMITER []
*T_UNIT 1 NS
*C_UNIT 1 PF
*R_UNIT 1 OHM
*L_UNIT 1 HENRY

*NAME_MAP
*3 clk
*4 diag_busy
*5 diag_done
*6 net
*7 net39
*8 net40
*9 net41
*10 net42
*11 net43
*12 net44
*13 net45
*14 net46
*15 net47
*16 net48
*17 h0[0]
*18 h0[1]
*19 h0[2]
*20 h0[3]
*21 h1[0]
*22 h1[1]
*23 h1[2]
*24 h1[3]
*25 h2[0]
*26 h2[1]
*27 h2[2]
*28 h2[3]
*29 h3[0]
*30 h3[1]
*31 h3[2]
*32 h3[3]
*33 rst
*34 start_diag
*35 x[0]
*36 x[1]
*37 x[2]
*38 x[3]
*39 y[0]
*40 y[1]
*41 y[2]
*42 y[3]
*43 y[4]
*44 y[5]
*45 y[6]
*46 y[7]
*47 y[8]
*48 y[9]
*49 _000_
*50 _001_
*51 _002_
*52 _003_
*53 _004_
*54 _005_
*55 _006_
*56 _007_
*57 _008_
*58 _009_
*59 _010_
*60 _011_
*61 _012_
*62 _013_
*63 _014_
*64 _015_
*65 _016_
*66 _017_
*67 _018_
*68 _019_
*69 _020_
*70 _021_
*71 _022_
*72 _023_
*73 _024_
*74 _025_
*75 _026_
*76 _027_
*77 _028_
*78 _029_
*79 _030_
*80 _031_
*81 _032_
*82 _033_
*83 _034_
*84 _035_
*85 _036_
*86 _037_
*87 _038_
*88 _039_
*89 _040_
*90 _041_
*91 _042_
*92 _043_
*93 _044_
*94 _045_
*95 _046_
*96 _047_
*97 _048_
*98 _049_
*99 _050_
*100 _051_
*101 _052_
*102 _053_
*103 _054_
*104 _055_
*105 _056_
*106 _057_
*107 _058_
*108 _059_
*109 _060_
*110 _061_
*111 _062_
*112 _063_
*113 _064_
*114 _065_
*115 _066_
*116 _067_
*117 _068_
*118 _069_
*119 _070_
*120 _071_
*121 _072_
*122 _073_
*123 _074_
*124 _075_
*125 _076_
*126 _077_
*127 _078_
*128 _079_
*129 _080_
*130 _081_
*131 _082_
*132 _083_
*133 _084_
*134 _085_
*135 _086_
*136 _087_
*137 _088_
*138 _089_
*139 _090_
*140 _091_
*141 _092_
*142 _093_
*143 _094_
*144 _095_
*145 _096_
*146 _097_
*147 _098_
*148 _099_
*149 _100_
*150 _101_
*151 _102_
*152 _103_
*153 _104_
*154 _105_
*155 _106_
*156 _107_
*157 _108_
*158 _109_
*159 _110_
*160 _111_
*161 _112_
*162 _113_
*163 _114_
*164 _115_
*165 _116_
*166 _117_
*167 _118_
*168 _119_
*169 _120_
*170 _121_
*171 _122_
*172 _123_
*173 _124_
*174 _125_
*175 _126_
*176 _127_
*177 _128_
*178 _129_
*179 _130_
*180 _131_
*181 _132_
*182 _133_
*183 _134_
*184 _135_
*185 _136_
*186 _137_
*187 _138_
*188 _139_
*189 _140_
*190 _141_
*191 _142_
*192 _143_
*193 _144_
*194 _145_
*195 _146_
*196 _147_
*197 _148_
*198 _149_
*199 _150_
*200 _151_
*201 _152_
*202 _153_
*203 _154_
*204 _155_
*205 _156_
*206 _157_
*207 _158_
*208 _159_
*209 _160_
*210 _161_
*211 _162_
*212 _163_
*213 _164_
*214 _165_
*215 _166_
*216 _167_
*217 _168_
*218 _169_
*219 _170_
*220 _171_
*221 _172_
*222 _173_
*223 _174_
*224 _175_
*225 _176_
*226 _177_
*227 _178_
*228 _179_
*229 _180_
*230 _181_
*231 _182_
*232 _183_
*233 _184_
*234 _185_
*235 _186_
*236 _187_
*237 _188_
*238 _189_
*239 _190_
*240 _191_
*241 _192_
*242 _193_
*243 _194_
*244 _195_
*245 _196_
*246 _197_
*247 _198_
*248 _199_
*249 _200_
*250 _201_
*251 _202_
*252 _203_
*253 _204_
*254 _205_
*255 _206_
*256 _207_
*257 _208_
*258 _209_
*259 _210_
*260 _211_
*261 _212_
*262 _213_
*263 _214_
*264 _215_
*265 _216_
*266 _217_
*267 _218_
*268 _219_
*269 _220_
*270 _221_
*271 _222_
*272 _223_
*273 _224_
*274 _225_
*275 _226_
*276 _227_
*277 _228_
*278 _229_
*279 _230_
*280 _231_
*281 _232_
*282 _233_
*283 _234_
*284 _235_
*285 _236_
*286 _237_
*287 _238_
*288 _239_
*289 _240_
*290 _241_
*291 _242_
*292 _243_
*293 _244_
*294 _245_
*295 _246_
*296 _247_
*297 _248_
*298 _249_
*299 _250_
*300 _251_
*301 _252_
*302 _253_
*303 _254_
*304 _255_
*305 _256_
*306 _257_
*307 _258_
*308 _259_
*309 _260_
*310 _261_
*311 _262_
*312 _263_
*313 _264_
*314 _265_
*315 _266_
*316 _267_
*317 _268_
*318 _269_
*319 _270_
*320 _271_
*321 _272_
*322 _273_
*323 _274_
*324 _275_
*325 _276_
*326 _277_
*327 _278_
*328 _279_
*329 _280_
*330 _281_
*331 _282_
*332 _283_
*333 _284_
*334 _285_
*335 _286_
*336 _287_
*337 _288_
*338 _289_
*339 _290_
*340 _291_
*341 _292_
*342 _293_
*343 _294_
*344 _295_
*345 _296_
*346 _297_
*347 _298_
*348 _299_
*349 _300_
*350 _301_
*351 _302_
*352 _303_
*353 _304_
*354 _305_
*355 _306_
*356 _307_
*357 _308_
*358 _309_
*359 _310_
*360 _311_
*361 _312_
*362 _313_
*363 _314_
*364 _315_
*365 _316_
*366 _317_
*367 _318_
*368 _319_
*369 _320_
*370 _321_
*371 _322_
*372 _323_
*373 _324_
*374 _325_
*375 _326_
*376 _327_
*377 _328_
*378 _329_
*379 _330_
*380 _331_
*381 _332_
*382 _333_
*383 _334_
*384 _335_
*385 _336_
*386 _337_
*387 _338_
*388 _339_
*389 _340_
*390 _341_
*391 _342_
*392 _343_
*393 _344_
*394 _345_
*395 _346_
*396 _347_
*397 _348_
*398 _349_
*399 _350_
*400 _351_
*401 _352_
*402 _353_
*403 _354_
*404 _355_
*405 _356_
*406 _357_
*407 _358_
*408 _359_
*409 _360_
*410 _361_
*411 _362_
*412 _363_
*413 _364_
*414 _365_
*415 _366_
*416 _367_
*417 _368_
*418 clknet_0_clk
*419 clknet_2_0__leaf_clk
*420 clknet_2_1__leaf_clk
*421 clknet_2_2__leaf_clk
*422 clknet_2_3__leaf_clk
*423 controller\.state\[0\]
*424 controller\.state\[10\]
*425 controller\.state\[11\]
*426 controller\.state\[1\]
*427 controller\.state\[2\]
*428 controller\.state\[3\]
*429 controller\.state\[4\]
*430 controller\.state\[5\]
*431 controller\.state\[6\]
*432 controller\.state\[7\]
*433 controller\.state\[8\]
*434 controller\.state\[9\]
*435 controller\.test_x\[0\]
*436 controller\.test_x\[1\]
*437 controller\.test_x\[2\]
*438 diagnostic\.x0\[0\]
*439 diagnostic\.x0\[1\]
*440 diagnostic\.x0\[2\]
*441 diagnostic\.x0\[3\]
*442 diagnostic\.x1\[0\]
*443 diagnostic\.x1\[1\]
*444 diagnostic\.x1\[2\]
*445 diagnostic\.x1\[3\]
*446 diagnostic\.x2\[0\]
*447 diagnostic\.x2\[1\]
*448 diagnostic\.x2\[2\]
*449 diagnostic\.x2\[3\]
*450 diagnostic\.x3\[0\]
*451 diagnostic\.x3\[1\]
*452 diagnostic\.x3\[2\]
*453 diagnostic\.x3\[3\]
*454 net1
*455 net10
*456 net100
*457 net101
*458 net102
*459 net103
*460 net104
*461 net105
*462 net106
*463 net107
*464 net108
*465 net11
*466 net12
*467 net13
*468 net14
*469 net15
*470 net16
*471 net17
*472 net18
*473 net19
*474 net2
*475 net20
*476 net21
*477 net22
*478 net23
*479 net24
*480 net25
*481 net26
*482 net27
*483 net28
*484 net29
*485 net3
*486 net30
*487 net31
*488 net32
*489 net33
*490 net34
*491 net35
*492 net36
*493 net37
*494 net38
*495 net4
*496 net49
*497 net5
*498 net50
*499 net51
*500 net52
*501 net53
*502 net54
*503 net55
*504 net56
*505 net57
*506 net6
*507 net62
*508 net63
*509 net64
*510 net65
*511 net69
*512 net7
*513 net70
*514 net8
*515 net86
*516 net87
*517 net88
*518 net89
*519 net9
*520 net90
*521 net91
*522 net92
*523 net93
*524 net94
*525 net95
*526 net96
*527 net97
*528 net98
*529 net99
*530 FILLER_0_121
*531 FILLER_0_124
*532 FILLER_0_135
*533 FILLER_0_138
*534 FILLER_0_150
*535 FILLER_0_156
*536 FILLER_0_159
*537 FILLER_0_162
*538 FILLER_0_165
*539 FILLER_0_169
*540 FILLER_0_172
*541 FILLER_0_175
*542 FILLER_0_178
*543 FILLER_0_181
*544 FILLER_0_184
*545 FILLER_0_191
*546 FILLER_0_194
*547 FILLER_0_197
*548 FILLER_0_200
*549 FILLER_0_35
*550 FILLER_0_49
*551 FILLER_0_91
*552 FILLER_0_94
*553 FILLER_10_100
*554 FILLER_10_115
*555 FILLER_10_118
*556 FILLER_10_137
*557 FILLER_10_141
*558 FILLER_10_144
*559 FILLER_10_147
*560 FILLER_10_163
*561 FILLER_10_166
*562 FILLER_10_169
*563 FILLER_10_172
*564 FILLER_10_175
*565 FILLER_10_197
*566 FILLER_10_200
*567 FILLER_10_25
*568 FILLER_10_46
*569 FILLER_10_49
*570 FILLER_10_85
*571 FILLER_11_111
*572 FILLER_11_113
*573 FILLER_11_116
*574 FILLER_11_130
*575 FILLER_11_133
*576 FILLER_11_136
*577 FILLER_11_139
*578 FILLER_11_142
*579 FILLER_11_145
*580 FILLER_11_148
*581 FILLER_11_151
*582 FILLER_11_154
*583 FILLER_11_157
*584 FILLER_11_160
*585 FILLER_11_169
*586 FILLER_11_172
*587 FILLER_11_3
*588 FILLER_11_47
*589 FILLER_11_57
*590 FILLER_11_6
*591 FILLER_11_72
*592 FILLER_12_103
*593 FILLER_12_126
*594 FILLER_12_129
*595 FILLER_12_132
*596 FILLER_12_135
*597 FILLER_12_138
*598 FILLER_12_147
*599 FILLER_12_153
*600 FILLER_12_163
*601 FILLER_12_182
*602 FILLER_12_185
*603 FILLER_12_197
*604 FILLER_12_200
*605 FILLER_12_23
*606 FILLER_12_26
*607 FILLER_12_3
*608 FILLER_12_49
*609 FILLER_12_74
*610 FILLER_12_81
*611 FILLER_12_85
*612 FILLER_12_88
*613 FILLER_13_11
*614 FILLER_13_113
*615 FILLER_13_116
*616 FILLER_13_119
*617 FILLER_13_122
*618 FILLER_13_125
*619 FILLER_13_139
*620 FILLER_13_14
*621 FILLER_13_146
*622 FILLER_13_149
*623 FILLER_13_152
*624 FILLER_13_155
*625 FILLER_13_165
*626 FILLER_13_17
*627 FILLER_13_176
*628 FILLER_13_179
*629 FILLER_13_182
*630 FILLER_13_185
*631 FILLER_13_30
*632 FILLER_13_33
*633 FILLER_13_36
*634 FILLER_13_45
*635 FILLER_13_57
*636 FILLER_13_60
*637 FILLER_13_76
*638 FILLER_14_100
*639 FILLER_14_119
*640 FILLER_14_12
*641 FILLER_14_122
*642 FILLER_14_135
*643 FILLER_14_138
*644 FILLER_14_141
*645 FILLER_14_144
*646 FILLER_14_147
*647 FILLER_14_155
*648 FILLER_14_158
*649 FILLER_14_182
*650 FILLER_14_197
*651 FILLER_14_200
*652 FILLER_14_25
*653 FILLER_14_29
*654 FILLER_14_32
*655 FILLER_14_35
*656 FILLER_14_46
*657 FILLER_14_49
*658 FILLER_14_52
*659 FILLER_14_72
*660 FILLER_14_75
*661 FILLER_14_82
*662 FILLER_15_100
*663 FILLER_15_103
*664 FILLER_15_106
*665 FILLER_15_109
*666 FILLER_15_113
*667 FILLER_15_116
*668 FILLER_15_119
*669 FILLER_15_129
*670 FILLER_15_132
*671 FILLER_15_135
*672 FILLER_15_138
*673 FILLER_15_141
*674 FILLER_15_148
*675 FILLER_15_155
*676 FILLER_15_161
*677 FILLER_15_164
*678 FILLER_15_167
*679 FILLER_15_169
*680 FILLER_15_172
*681 FILLER_15_196
*682 FILLER_15_3
*683 FILLER_15_36
*684 FILLER_15_39
*685 FILLER_15_42
*686 FILLER_15_51
*687 FILLER_15_54
*688 FILLER_15_57
*689 FILLER_15_60
*690 FILLER_15_63
*691 FILLER_15_72
*692 FILLER_15_75
*693 FILLER_15_78
*694 FILLER_15_81
*695 FILLER_15_84
*696 FILLER_15_87
*697 FILLER_15_90
*698 FILLER_16_101
*699 FILLER_16_104
*700 FILLER_16_107
*701 FILLER_16_110
*702 FILLER_16_113
*703 FILLER_16_116
*704 FILLER_16_119
*705 FILLER_16_129
*706 FILLER_16_161
*707 FILLER_16_164
*708 FILLER_16_167
*709 FILLER_16_197
*710 FILLER_16_200
*711 FILLER_16_27
*712 FILLER_16_29
*713 FILLER_16_3
*714 FILLER_16_45
*715 FILLER_16_59
*716 FILLER_16_62
*717 FILLER_16_65
*718 FILLER_16_68
*719 FILLER_16_71
*720 FILLER_16_74
*721 FILLER_16_77
*722 FILLER_16_80
*723 FILLER_16_83
*724 FILLER_16_85
*725 FILLER_17_101
*726 FILLER_17_104
*727 FILLER_17_107
*728 FILLER_17_110
*729 FILLER_17_113
*730 FILLER_17_116
*731 FILLER_17_125
*732 FILLER_17_128
*733 FILLER_17_134
*734 FILLER_17_137
*735 FILLER_17_140
*736 FILLER_17_145
*737 FILLER_17_148
*738 FILLER_17_163
*739 FILLER_17_166
*740 FILLER_17_169
*741 FILLER_17_172
*742 FILLER_17_181
*743 FILLER_17_3
*744 FILLER_17_38
*745 FILLER_17_41
*746 FILLER_17_44
*747 FILLER_17_47
*748 FILLER_17_50
*749 FILLER_17_53
*750 FILLER_17_57
*751 FILLER_17_6
*752 FILLER_17_60
*753 FILLER_17_63
*754 FILLER_17_78
*755 FILLER_17_9
*756 FILLER_17_92
*757 FILLER_17_95
*758 FILLER_17_98
*759 FILLER_18_100
*760 FILLER_18_127
*761 FILLER_18_135
*762 FILLER_18_138
*763 FILLER_18_154
*764 FILLER_18_194
*765 FILLER_18_197
*766 FILLER_18_200
*767 FILLER_18_25
*768 FILLER_18_29
*769 FILLER_18_32
*770 FILLER_18_53
*771 FILLER_18_56
*772 FILLER_18_59
*773 FILLER_18_85
*774 FILLER_19_107
*775 FILLER_19_110
*776 FILLER_19_113
*777 FILLER_19_116
*778 FILLER_19_119
*779 FILLER_19_122
*780 FILLER_19_128
*781 FILLER_19_142
*782 FILLER_19_145
*783 FILLER_19_158
*784 FILLER_19_167
*785 FILLER_19_3
*786 FILLER_19_33
*787 FILLER_19_36
*788 FILLER_19_52
*789 FILLER_19_55
*790 FILLER_19_57
*791 FILLER_19_6
*792 FILLER_19_60
*793 FILLER_19_63
*794 FILLER_19_81
*795 FILLER_19_84
*796 FILLER_1_108
*797 FILLER_1_11
*798 FILLER_1_111
*799 FILLER_1_120
*800 FILLER_1_137
*801 FILLER_1_149
*802 FILLER_1_165
*803 FILLER_1_174
*804 FILLER_1_177
*805 FILLER_1_180
*806 FILLER_1_183
*807 FILLER_1_186
*808 FILLER_1_189
*809 FILLER_1_192
*810 FILLER_1_195
*811 FILLER_1_198
*812 FILLER_1_55
*813 FILLER_1_57
*814 FILLER_20_102
*815 FILLER_20_105
*816 FILLER_20_108
*817 FILLER_20_111
*818 FILLER_20_114
*819 FILLER_20_117
*820 FILLER_20_120
*821 FILLER_20_123
*822 FILLER_20_126
*823 FILLER_20_132
*824 FILLER_20_135
*825 FILLER_20_138
*826 FILLER_20_141
*827 FILLER_20_144
*828 FILLER_20_147
*829 FILLER_20_15
*830 FILLER_20_150
*831 FILLER_20_153
*832 FILLER_20_156
*833 FILLER_20_159
*834 FILLER_20_162
*835 FILLER_20_165
*836 FILLER_20_168
*837 FILLER_20_18
*838 FILLER_20_197
*839 FILLER_20_200
*840 FILLER_20_21
*841 FILLER_20_27
*842 FILLER_20_29
*843 FILLER_20_3
*844 FILLER_20_43
*845 FILLER_20_46
*846 FILLER_20_55
*847 FILLER_20_58
*848 FILLER_20_6
*849 FILLER_20_61
*850 FILLER_20_64
*851 FILLER_20_71
*852 FILLER_20_74
*853 FILLER_20_77
*854 FILLER_20_80
*855 FILLER_20_83
*856 FILLER_20_85
*857 FILLER_20_9
*858 FILLER_20_99
*859 FILLER_21_10
*860 FILLER_21_102
*861 FILLER_21_105
*862 FILLER_21_108
*863 FILLER_21_111
*864 FILLER_21_113
*865 FILLER_21_116
*866 FILLER_21_119
*867 FILLER_21_122
*868 FILLER_21_131
*869 FILLER_21_139
*870 FILLER_21_147
*871 FILLER_21_150
*872 FILLER_21_153
*873 FILLER_21_156
*874 FILLER_21_159
*875 FILLER_21_16
*876 FILLER_21_162
*877 FILLER_21_169
*878 FILLER_21_172
*879 FILLER_21_19
*880 FILLER_21_195
*881 FILLER_21_198
*882 FILLER_21_22
*883 FILLER_21_25
*884 FILLER_21_28
*885 FILLER_21_35
*886 FILLER_21_38
*887 FILLER_21_41
*888 FILLER_21_44
*889 FILLER_21_47
*890 FILLER_21_50
*891 FILLER_21_53
*892 FILLER_21_57
*893 FILLER_21_60
*894 FILLER_21_63
*895 FILLER_21_7
*896 FILLER_21_93
*897 FILLER_21_96
*898 FILLER_21_99
*899 FILLER_22_108
*900 FILLER_22_111
*901 FILLER_22_139
*902 FILLER_22_154
*903 FILLER_22_160
*904 FILLER_22_194
*905 FILLER_22_197
*906 FILLER_22_200
*907 FILLER_22_22
*908 FILLER_22_25
*909 FILLER_22_29
*910 FILLER_22_3
*911 FILLER_22_32
*912 FILLER_22_35
*913 FILLER_22_56
*914 FILLER_22_6
*915 FILLER_22_67
*916 FILLER_22_70
*917 FILLER_22_73
*918 FILLER_22_76
*919 FILLER_22_79
*920 FILLER_22_82
*921 FILLER_22_85
*922 FILLER_22_92
*923 FILLER_23_113
*924 FILLER_23_116
*925 FILLER_23_133
*926 FILLER_23_136
*927 FILLER_23_139
*928 FILLER_23_142
*929 FILLER_23_145
*930 FILLER_23_148
*931 FILLER_23_151
*932 FILLER_23_167
*933 FILLER_23_169
*934 FILLER_23_172
*935 FILLER_23_194
*936 FILLER_23_197
*937 FILLER_23_200
*938 FILLER_23_25
*939 FILLER_23_28
*940 FILLER_23_43
*941 FILLER_23_46
*942 FILLER_23_49
*943 FILLER_23_90
*944 FILLER_24_107
*945 FILLER_24_110
*946 FILLER_24_113
*947 FILLER_24_116
*948 FILLER_24_119
*949 FILLER_24_125
*950 FILLER_24_128
*951 FILLER_24_131
*952 FILLER_24_134
*953 FILLER_24_137
*954 FILLER_24_141
*955 FILLER_24_144
*956 FILLER_24_147
*957 FILLER_24_150
*958 FILLER_24_153
*959 FILLER_24_166
*960 FILLER_24_169
*961 FILLER_24_172
*962 FILLER_24_197
*963 FILLER_24_20
*964 FILLER_24_200
*965 FILLER_24_29
*966 FILLER_24_50
*967 FILLER_24_53
*968 FILLER_24_62
*969 FILLER_24_70
*970 FILLER_24_73
*971 FILLER_24_76
*972 FILLER_24_85
*973 FILLER_24_88
*974 FILLER_25_100
*975 FILLER_25_103
*976 FILLER_25_106
*977 FILLER_25_109
*978 FILLER_25_113
*979 FILLER_25_116
*980 FILLER_25_119
*981 FILLER_25_122
*982 FILLER_25_141
*983 FILLER_25_153
*984 FILLER_25_156
*985 FILLER_25_159
*986 FILLER_25_162
*987 FILLER_25_165
*988 FILLER_25_169
*989 FILLER_25_172
*990 FILLER_25_175
*991 FILLER_25_196
*992 FILLER_25_199
*993 FILLER_25_34
*994 FILLER_25_37
*995 FILLER_25_40
*996 FILLER_25_43
*997 FILLER_25_46
*998 FILLER_25_49
*999 FILLER_25_52
*1000 FILLER_25_55
*1001 FILLER_25_57
*1002 FILLER_25_60
*1003 FILLER_25_63
*1004 FILLER_25_66
*1005 FILLER_25_69
*1006 FILLER_25_72
*1007 FILLER_25_75
*1008 FILLER_25_78
*1009 FILLER_25_84
*1010 FILLER_25_91
*1011 FILLER_25_94
*1012 FILLER_25_97
*1013 FILLER_26_100
*1014 FILLER_26_103
*1015 FILLER_26_106
*1016 FILLER_26_109
*1017 FILLER_26_112
*1018 FILLER_26_115
*1019 FILLER_26_135
*1020 FILLER_26_138
*1021 FILLER_26_141
*1022 FILLER_26_176
*1023 FILLER_26_191
*1024 FILLER_26_194
*1025 FILLER_26_197
*1026 FILLER_26_200
*1027 FILLER_26_22
*1028 FILLER_26_25
*1029 FILLER_26_29
*1030 FILLER_26_3
*1031 FILLER_26_32
*1032 FILLER_26_40
*1033 FILLER_26_43
*1034 FILLER_26_46
*1035 FILLER_26_49
*1036 FILLER_26_6
*1037 FILLER_26_70
*1038 FILLER_26_73
*1039 FILLER_26_76
*1040 FILLER_26_85
*1041 FILLER_26_88
*1042 FILLER_26_91
*1043 FILLER_26_94
*1044 FILLER_26_97
*1045 FILLER_27_113
*1046 FILLER_27_116
*1047 FILLER_27_119
*1048 FILLER_27_129
*1049 FILLER_27_143
*1050 FILLER_27_157
*1051 FILLER_27_160
*1052 FILLER_27_163
*1053 FILLER_27_166
*1054 FILLER_27_182
*1055 FILLER_27_190
*1056 FILLER_27_23
*1057 FILLER_27_39
*1058 FILLER_27_42
*1059 FILLER_27_45
*1060 FILLER_27_55
*1061 FILLER_27_62
*1062 FILLER_27_65
*1063 FILLER_27_98
*1064 FILLER_28_107
*1065 FILLER_28_110
*1066 FILLER_28_113
*1067 FILLER_28_116
*1068 FILLER_28_119
*1069 FILLER_28_122
*1070 FILLER_28_128
*1071 FILLER_28_13
*1072 FILLER_28_131
*1073 FILLER_28_134
*1074 FILLER_28_137
*1075 FILLER_28_141
*1076 FILLER_28_144
*1077 FILLER_28_147
*1078 FILLER_28_150
*1079 FILLER_28_153
*1080 FILLER_28_156
*1081 FILLER_28_159
*1082 FILLER_28_162
*1083 FILLER_28_165
*1084 FILLER_28_168
*1085 FILLER_28_185
*1086 FILLER_28_197
*1087 FILLER_28_200
*1088 FILLER_28_29
*1089 FILLER_28_32
*1090 FILLER_28_47
*1091 FILLER_28_50
*1092 FILLER_28_62
*1093 FILLER_28_65
*1094 FILLER_28_68
*1095 FILLER_28_81
*1096 FILLER_28_89
*1097 FILLER_28_92
*1098 FILLER_29_10
*1099 FILLER_29_107
*1100 FILLER_29_110
*1101 FILLER_29_113
*1102 FILLER_29_116
*1103 FILLER_29_119
*1104 FILLER_29_122
*1105 FILLER_29_136
*1106 FILLER_29_139
*1107 FILLER_29_142
*1108 FILLER_29_145
*1109 FILLER_29_167
*1110 FILLER_29_169
*1111 FILLER_29_172
*1112 FILLER_29_200
*1113 FILLER_29_24
*1114 FILLER_29_27
*1115 FILLER_29_42
*1116 FILLER_29_45
*1117 FILLER_29_48
*1118 FILLER_29_57
*1119 FILLER_29_60
*1120 FILLER_29_63
*1121 FILLER_29_66
*1122 FILLER_29_69
*1123 FILLER_29_7
*1124 FILLER_29_72
*1125 FILLER_29_87
*1126 FILLER_29_90
*1127 FILLER_29_93
*1128 FILLER_2_102
*1129 FILLER_2_105
*1130 FILLER_2_119
*1131 FILLER_2_126
*1132 FILLER_2_129
*1133 FILLER_2_147
*1134 FILLER_2_156
*1135 FILLER_2_164
*1136 FILLER_2_167
*1137 FILLER_2_170
*1138 FILLER_2_179
*1139 FILLER_2_187
*1140 FILLER_2_190
*1141 FILLER_2_193
*1142 FILLER_2_197
*1143 FILLER_2_200
*1144 FILLER_2_32
*1145 FILLER_2_66
*1146 FILLER_30_115
*1147 FILLER_30_137
*1148 FILLER_30_141
*1149 FILLER_30_144
*1150 FILLER_30_16
*1151 FILLER_30_168
*1152 FILLER_30_171
*1153 FILLER_30_174
*1154 FILLER_30_188
*1155 FILLER_30_191
*1156 FILLER_30_194
*1157 FILLER_30_197
*1158 FILLER_30_200
*1159 FILLER_30_24
*1160 FILLER_30_27
*1161 FILLER_30_3
*1162 FILLER_30_35
*1163 FILLER_30_38
*1164 FILLER_30_41
*1165 FILLER_30_6
*1166 FILLER_30_69
*1167 FILLER_30_72
*1168 FILLER_30_75
*1169 FILLER_30_78
*1170 FILLER_30_81
*1171 FILLER_30_85
*1172 FILLER_30_88
*1173 FILLER_30_9
*1174 FILLER_31_113
*1175 FILLER_31_12
*1176 FILLER_31_128
*1177 FILLER_31_142
*1178 FILLER_31_145
*1179 FILLER_31_148
*1180 FILLER_31_165
*1181 FILLER_31_169
*1182 FILLER_31_172
*1183 FILLER_31_175
*1184 FILLER_31_178
*1185 FILLER_31_181
*1186 FILLER_31_184
*1187 FILLER_31_187
*1188 FILLER_31_197
*1189 FILLER_31_200
*1190 FILLER_31_3
*1191 FILLER_31_37
*1192 FILLER_31_40
*1193 FILLER_31_43
*1194 FILLER_31_53
*1195 FILLER_31_6
*1196 FILLER_31_68
*1197 FILLER_31_71
*1198 FILLER_31_9
*1199 FILLER_32_101
*1200 FILLER_32_104
*1201 FILLER_32_112
*1202 FILLER_32_115
*1203 FILLER_32_118
*1204 FILLER_32_12
*1205 FILLER_32_121
*1206 FILLER_32_15
*1207 FILLER_32_18
*1208 FILLER_32_180
*1209 FILLER_32_183
*1210 FILLER_32_186
*1211 FILLER_32_189
*1212 FILLER_32_192
*1213 FILLER_32_197
*1214 FILLER_32_42
*1215 FILLER_32_45
*1216 FILLER_32_71
*1217 FILLER_32_74
*1218 FILLER_32_80
*1219 FILLER_32_83
*1220 FILLER_32_9
*1221 FILLER_33_102
*1222 FILLER_33_105
*1223 FILLER_33_108
*1224 FILLER_33_111
*1225 FILLER_33_113
*1226 FILLER_33_116
*1227 FILLER_33_119
*1228 FILLER_33_12
*1229 FILLER_33_138
*1230 FILLER_33_141
*1231 FILLER_33_15
*1232 FILLER_33_153
*1233 FILLER_33_167
*1234 FILLER_33_169
*1235 FILLER_33_179
*1236 FILLER_33_18
*1237 FILLER_33_182
*1238 FILLER_33_185
*1239 FILLER_33_188
*1240 FILLER_33_191
*1241 FILLER_33_197
*1242 FILLER_33_21
*1243 FILLER_33_24
*1244 FILLER_33_27
*1245 FILLER_33_29
*1246 FILLER_33_32
*1247 FILLER_33_35
*1248 FILLER_33_38
*1249 FILLER_33_41
*1250 FILLER_33_44
*1251 FILLER_33_47
*1252 FILLER_33_50
*1253 FILLER_33_53
*1254 FILLER_33_57
*1255 FILLER_33_60
*1256 FILLER_33_63
*1257 FILLER_33_66
*1258 FILLER_33_82
*1259 FILLER_33_85
*1260 FILLER_33_88
*1261 FILLER_33_96
*1262 FILLER_33_99
*1263 FILLER_3_102
*1264 FILLER_3_105
*1265 FILLER_3_123
*1266 FILLER_3_138
*1267 FILLER_3_141
*1268 FILLER_3_144
*1269 FILLER_3_154
*1270 FILLER_3_182
*1271 FILLER_3_185
*1272 FILLER_3_195
*1273 FILLER_3_198
*1274 FILLER_3_46
*1275 FILLER_3_57
*1276 FILLER_3_67
*1277 FILLER_3_96
*1278 FILLER_3_99
*1279 FILLER_4_105
*1280 FILLER_4_125
*1281 FILLER_4_128
*1282 FILLER_4_131
*1283 FILLER_4_141
*1284 FILLER_4_156
*1285 FILLER_4_159
*1286 FILLER_4_162
*1287 FILLER_4_165
*1288 FILLER_4_168
*1289 FILLER_4_171
*1290 FILLER_4_179
*1291 FILLER_4_189
*1292 FILLER_4_192
*1293 FILLER_4_195
*1294 FILLER_4_197
*1295 FILLER_4_200
*1296 FILLER_4_26
*1297 FILLER_4_37
*1298 FILLER_4_47
*1299 FILLER_4_56
*1300 FILLER_4_59
*1301 FILLER_4_70
*1302 FILLER_4_81
*1303 FILLER_5_109
*1304 FILLER_5_126
*1305 FILLER_5_129
*1306 FILLER_5_132
*1307 FILLER_5_135
*1308 FILLER_5_138
*1309 FILLER_5_141
*1310 FILLER_5_144
*1311 FILLER_5_147
*1312 FILLER_5_150
*1313 FILLER_5_162
*1314 FILLER_5_165
*1315 FILLER_5_169
*1316 FILLER_5_3
*1317 FILLER_5_53
*1318 FILLER_5_57
*1319 FILLER_5_98
*1320 FILLER_6_102
*1321 FILLER_6_117
*1322 FILLER_6_131
*1323 FILLER_6_134
*1324 FILLER_6_137
*1325 FILLER_6_141
*1326 FILLER_6_144
*1327 FILLER_6_147
*1328 FILLER_6_150
*1329 FILLER_6_153
*1330 FILLER_6_173
*1331 FILLER_6_176
*1332 FILLER_6_195
*1333 FILLER_6_197
*1334 FILLER_6_200
*1335 FILLER_6_29
*1336 FILLER_6_62
*1337 FILLER_6_65
*1338 FILLER_6_93
*1339 FILLER_6_96
*1340 FILLER_6_99
*1341 FILLER_7_107
*1342 FILLER_7_110
*1343 FILLER_7_113
*1344 FILLER_7_116
*1345 FILLER_7_119
*1346 FILLER_7_159
*1347 FILLER_7_195
*1348 FILLER_7_198
*1349 FILLER_7_26
*1350 FILLER_7_45
*1351 FILLER_7_52
*1352 FILLER_7_55
*1353 FILLER_7_74
*1354 FILLER_8_100
*1355 FILLER_8_118
*1356 FILLER_8_121
*1357 FILLER_8_124
*1358 FILLER_8_127
*1359 FILLER_8_130
*1360 FILLER_8_149
*1361 FILLER_8_152
*1362 FILLER_8_155
*1363 FILLER_8_161
*1364 FILLER_8_164
*1365 FILLER_8_167
*1366 FILLER_8_170
*1367 FILLER_8_173
*1368 FILLER_8_189
*1369 FILLER_8_192
*1370 FILLER_8_195
*1371 FILLER_8_197
*1372 FILLER_8_200
*1373 FILLER_8_25
*1374 FILLER_8_29
*1375 FILLER_8_47
*1376 FILLER_8_74
*1377 FILLER_8_83
*1378 FILLER_8_91
*1379 FILLER_8_94
*1380 FILLER_8_97
*1381 FILLER_9_107
*1382 FILLER_9_110
*1383 FILLER_9_113
*1384 FILLER_9_116
*1385 FILLER_9_119
*1386 FILLER_9_122
*1387 FILLER_9_135
*1388 FILLER_9_148
*1389 FILLER_9_151
*1390 FILLER_9_154
*1391 FILLER_9_157
*1392 FILLER_9_160
*1393 FILLER_9_167
*1394 FILLER_9_169
*1395 FILLER_9_172
*1396 FILLER_9_175
*1397 FILLER_9_178
*1398 FILLER_9_192
*1399 FILLER_9_29
*1400 FILLER_9_3
*1401 FILLER_9_32
*1402 FILLER_9_57
*1403 FILLER_9_60
*1404 FILLER_9_69
*1405 FILLER_9_80
*1406 FILLER_9_83
*1407 PHY_EDGE_ROW_0_Left_34
*1408 PHY_EDGE_ROW_0_Right_0
*1409 PHY_EDGE_ROW_10_Left_44
*1410 PHY_EDGE_ROW_10_Right_10
*1411 PHY_EDGE_ROW_11_Left_45
*1412 PHY_EDGE_ROW_11_Right_11
*1413 PHY_EDGE_ROW_12_Left_46
*1414 PHY_EDGE_ROW_12_Right_12
*1415 PHY_EDGE_ROW_13_Left_47
*1416 PHY_EDGE_ROW_13_Right_13
*1417 PHY_EDGE_ROW_14_Left_48
*1418 PHY_EDGE_ROW_14_Right_14
*1419 PHY_EDGE_ROW_15_Left_49
*1420 PHY_EDGE_ROW_15_Right_15
*1421 PHY_EDGE_ROW_16_Left_50
*1422 PHY_EDGE_ROW_16_Right_16
*1423 PHY_EDGE_ROW_17_Left_51
*1424 PHY_EDGE_ROW_17_Right_17
*1425 PHY_EDGE_ROW_18_Left_52
*1426 PHY_EDGE_ROW_18_Right_18
*1427 PHY_EDGE_ROW_19_Left_53
*1428 PHY_EDGE_ROW_19_Right_19
*1429 PHY_EDGE_ROW_1_Left_35
*1430 PHY_EDGE_ROW_1_Right_1
*1431 PHY_EDGE_ROW_20_Left_54
*1432 PHY_EDGE_ROW_20_Right_20
*1433 PHY_EDGE_ROW_21_Left_55
*1434 PHY_EDGE_ROW_21_Right_21
*1435 PHY_EDGE_ROW_22_Left_56
*1436 PHY_EDGE_ROW_22_Right_22
*1437 PHY_EDGE_ROW_23_Left_57
*1438 PHY_EDGE_ROW_23_Right_23
*1439 PHY_EDGE_ROW_24_Left_58
*1440 PHY_EDGE_ROW_24_Right_24
*1441 PHY_EDGE_ROW_25_Left_59
*1442 PHY_EDGE_ROW_25_Right_25
*1443 PHY_EDGE_ROW_26_Left_60
*1444 PHY_EDGE_ROW_26_Right_26
*1445 PHY_EDGE_ROW_27_Left_61
*1446 PHY_EDGE_ROW_27_Right_27
*1447 PHY_EDGE_ROW_28_Left_62
*1448 PHY_EDGE_ROW_28_Right_28
*1449 PHY_EDGE_ROW_29_Left_63
*1450 PHY_EDGE_ROW_29_Right_29
*1451 PHY_EDGE_ROW_2_Left_36
*1452 PHY_EDGE_ROW_2_Right_2
*1453 PHY_EDGE_ROW_30_Left_64
*1454 PHY_EDGE_ROW_30_Right_30
*1455 PHY_EDGE_ROW_31_Left_65
*1456 PHY_EDGE_ROW_31_Right_31
*1457 PHY_EDGE_ROW_32_Left_66
*1458 PHY_EDGE_ROW_32_Right_32
*1459 PHY_EDGE_ROW_33_Left_67
*1460 PHY_EDGE_ROW_33_Right_33
*1461 PHY_EDGE_ROW_3_Left_37
*1462 PHY_EDGE_ROW_3_Right_3
*1463 PHY_EDGE_ROW_4_Left_38
*1464 PHY_EDGE_ROW_4_Right_4
*1465 PHY_EDGE_ROW_5_Left_39
*1466 PHY_EDGE_ROW_5_Right_5
*1467 PHY_EDGE_ROW_6_Left_40
*1468 PHY_EDGE_ROW_6_Right_6
*1469 PHY_EDGE_ROW_7_Left_41
*1470 PHY_EDGE_ROW_7_Right_7
*1471 PHY_EDGE_ROW_8_Left_42
*1472 PHY_EDGE_ROW_8_Right_8
*1473 PHY_EDGE_ROW_9_Left_43
*1474 PHY_EDGE_ROW_9_Right_9
*1475 TAP_TAPCELL_ROW_0_68
*1476 TAP_TAPCELL_ROW_0_69
*1477 TAP_TAPCELL_ROW_0_70
*1478 TAP_TAPCELL_ROW_0_71
*1479 TAP_TAPCELL_ROW_0_72
*1480 TAP_TAPCELL_ROW_0_73
*1481 TAP_TAPCELL_ROW_0_74
*1482 TAP_TAPCELL_ROW_10_106
*1483 TAP_TAPCELL_ROW_10_107
*1484 TAP_TAPCELL_ROW_10_108
*1485 TAP_TAPCELL_ROW_10_109
*1486 TAP_TAPCELL_ROW_11_110
*1487 TAP_TAPCELL_ROW_11_111
*1488 TAP_TAPCELL_ROW_11_112
*1489 TAP_TAPCELL_ROW_12_113
*1490 TAP_TAPCELL_ROW_12_114
*1491 TAP_TAPCELL_ROW_12_115
*1492 TAP_TAPCELL_ROW_12_116
*1493 TAP_TAPCELL_ROW_13_117
*1494 TAP_TAPCELL_ROW_13_118
*1495 TAP_TAPCELL_ROW_13_119
*1496 TAP_TAPCELL_ROW_14_120
*1497 TAP_TAPCELL_ROW_14_121
*1498 TAP_TAPCELL_ROW_14_122
*1499 TAP_TAPCELL_ROW_14_123
*1500 TAP_TAPCELL_ROW_15_124
*1501 TAP_TAPCELL_ROW_15_125
*1502 TAP_TAPCELL_ROW_15_126
*1503 TAP_TAPCELL_ROW_16_127
*1504 TAP_TAPCELL_ROW_16_128
*1505 TAP_TAPCELL_ROW_16_129
*1506 TAP_TAPCELL_ROW_16_130
*1507 TAP_TAPCELL_ROW_17_131
*1508 TAP_TAPCELL_ROW_17_132
*1509 TAP_TAPCELL_ROW_17_133
*1510 TAP_TAPCELL_ROW_18_134
*1511 TAP_TAPCELL_ROW_18_135
*1512 TAP_TAPCELL_ROW_18_136
*1513 TAP_TAPCELL_ROW_18_137
*1514 TAP_TAPCELL_ROW_19_138
*1515 TAP_TAPCELL_ROW_19_139
*1516 TAP_TAPCELL_ROW_19_140
*1517 TAP_TAPCELL_ROW_1_75
*1518 TAP_TAPCELL_ROW_1_76
*1519 TAP_TAPCELL_ROW_1_77
*1520 TAP_TAPCELL_ROW_20_141
*1521 TAP_TAPCELL_ROW_20_142
*1522 TAP_TAPCELL_ROW_20_143
*1523 TAP_TAPCELL_ROW_20_144
*1524 TAP_TAPCELL_ROW_21_145
*1525 TAP_TAPCELL_ROW_21_146
*1526 TAP_TAPCELL_ROW_21_147
*1527 TAP_TAPCELL_ROW_22_148
*1528 TAP_TAPCELL_ROW_22_149
*1529 TAP_TAPCELL_ROW_22_150
*1530 TAP_TAPCELL_ROW_22_151
*1531 TAP_TAPCELL_ROW_23_152
*1532 TAP_TAPCELL_ROW_23_153
*1533 TAP_TAPCELL_ROW_23_154
*1534 TAP_TAPCELL_ROW_24_155
*1535 TAP_TAPCELL_ROW_24_156
*1536 TAP_TAPCELL_ROW_24_157
*1537 TAP_TAPCELL_ROW_24_158
*1538 TAP_TAPCELL_ROW_25_159
*1539 TAP_TAPCELL_ROW_25_160
*1540 TAP_TAPCELL_ROW_25_161
*1541 TAP_TAPCELL_ROW_26_162
*1542 TAP_TAPCELL_ROW_26_163
*1543 TAP_TAPCELL_ROW_26_164
*1544 TAP_TAPCELL_ROW_26_165
*1545 TAP_TAPCELL_ROW_27_166
*1546 TAP_TAPCELL_ROW_27_167
*1547 TAP_TAPCELL_ROW_27_168
*1548 TAP_TAPCELL_ROW_28_169
*1549 TAP_TAPCELL_ROW_28_170
*1550 TAP_TAPCELL_ROW_28_171
*1551 TAP_TAPCELL_ROW_28_172
*1552 TAP_TAPCELL_ROW_29_173
*1553 TAP_TAPCELL_ROW_29_174
*1554 TAP_TAPCELL_ROW_29_175
*1555 TAP_TAPCELL_ROW_2_78
*1556 TAP_TAPCELL_ROW_2_79
*1557 TAP_TAPCELL_ROW_2_80
*1558 TAP_TAPCELL_ROW_2_81
*1559 TAP_TAPCELL_ROW_30_176
*1560 TAP_TAPCELL_ROW_30_177
*1561 TAP_TAPCELL_ROW_30_178
*1562 TAP_TAPCELL_ROW_30_179
*1563 TAP_TAPCELL_ROW_31_180
*1564 TAP_TAPCELL_ROW_31_181
*1565 TAP_TAPCELL_ROW_31_182
*1566 TAP_TAPCELL_ROW_32_183
*1567 TAP_TAPCELL_ROW_32_184
*1568 TAP_TAPCELL_ROW_32_185
*1569 TAP_TAPCELL_ROW_32_186
*1570 TAP_TAPCELL_ROW_33_187
*1571 TAP_TAPCELL_ROW_33_188
*1572 TAP_TAPCELL_ROW_33_189
*1573 TAP_TAPCELL_ROW_33_190
*1574 TAP_TAPCELL_ROW_33_191
*1575 TAP_TAPCELL_ROW_33_192
*1576 TAP_TAPCELL_ROW_33_193
*1577 TAP_TAPCELL_ROW_3_82
*1578 TAP_TAPCELL_ROW_3_83
*1579 TAP_TAPCELL_ROW_3_84
*1580 TAP_TAPCELL_ROW_4_85
*1581 TAP_TAPCELL_ROW_4_86
*1582 TAP_TAPCELL_ROW_4_87
*1583 TAP_TAPCELL_ROW_4_88
*1584 TAP_TAPCELL_ROW_5_89
*1585 TAP_TAPCELL_ROW_5_90
*1586 TAP_TAPCELL_ROW_5_91
*1587 TAP_TAPCELL_ROW_6_92
*1588 TAP_TAPCELL_ROW_6_93
*1589 TAP_TAPCELL_ROW_6_94
*1590 TAP_TAPCELL_ROW_6_95
*1591 TAP_TAPCELL_ROW_7_96
*1592 TAP_TAPCELL_ROW_7_97
*1593 TAP_TAPCELL_ROW_7_98
*1594 TAP_TAPCELL_ROW_8_100
*1595 TAP_TAPCELL_ROW_8_101
*1596 TAP_TAPCELL_ROW_8_102
*1597 TAP_TAPCELL_ROW_8_99
*1598 TAP_TAPCELL_ROW_9_103
*1599 TAP_TAPCELL_ROW_9_104
*1600 TAP_TAPCELL_ROW_9_105
*1601 _369_
*1602 _370_
*1603 _371_
*1604 _372_
*1605 _373_
*1606 _374_
*1607 _375_
*1608 _376_
*1609 _377_
*1610 _378_
*1611 _379_
*1612 _380_
*1613 _381_
*1614 _382_
*1615 _383_
*1616 _384_
*1617 _385_
*1618 _386_
*1619 _387_
*1620 _388_
*1621 _389_
*1622 _390_
*1623 _391_
*1624 _392_
*1625 _393_
*1626 _394_
*1627 _395_
*1628 _396_
*1629 _397_
*1630 _398_
*1631 _399_
*1632 _400_
*1633 _401_
*1634 _402_
*1635 _403_
*1636 _404_
*1637 _405_
*1638 _406_
*1639 _407_
*1640 _408_
*1641 _409_
*1642 _410_
*1643 _411_
*1644 _412_
*1645 _413_
*1646 _414_
*1647 _415_
*1648 _416_
*1649 _417_
*1650 _418_
*1651 _419_
*1652 _420_
*1653 _421_
*1654 _422_
*1655 _423_
*1656 _424_
*1657 _425_
*1658 _426_
*1659 _427_
*1660 _428_
*1661 _429_
*1662 _430_
*1663 _431_
*1664 _432_
*1665 _433_
*1666 _434_
*1667 _435_
*1668 _436_
*1669 _437_
*1670 _438_
*1671 _439_
*1672 _440_
*1673 _441_
*1674 _442_
*1675 _443_
*1676 _444_
*1677 _445_
*1678 _446_
*1679 _447_
*1680 _448_
*1681 _449_
*1682 _450_
*1683 _451_
*1684 _452_
*1685 _453_
*1686 _454_
*1687 _455_
*1688 _456_
*1689 _457_
*1690 _458_
*1691 _459_
*1692 _460_
*1693 _461_
*1694 _462_
*1695 _463_
*1696 _464_
*1697 _465_
*1698 _466_
*1699 _467_
*1700 _468_
*1701 _469_
*1702 _470_
*1703 _471_
*1704 _472_
*1705 _473_
*1706 _474_
*1707 _475_
*1708 _476_
*1709 _477_
*1710 _478_
*1711 _479_
*1712 _480_
*1713 _481_
*1714 _482_
*1715 _483_
*1716 _484_
*1717 _485_
*1718 _486_
*1719 _487_
*1720 _488_
*1721 _489_
*1722 _490_
*1723 _491_
*1724 _492_
*1725 _493_
*1726 _494_
*1727 _495_
*1728 _496_
*1729 _497_
*1730 _498_
*1731 _499_
*1732 _500_
*1733 _501_
*1734 _502_
*1735 _503_
*1736 _504_
*1737 _505_
*1738 _506_
*1739 _507_
*1740 _508_
*1741 _509_
*1742 _510_
*1743 _511_
*1744 _512_
*1745 _513_
*1746 _514_
*1747 _515_
*1748 _516_
*1749 _517_
*1750 _518_
*1751 _519_
*1752 _520_
*1753 _521_
*1754 _522_
*1755 _523_
*1756 _524_
*1757 _525_
*1758 _526_
*1759 _527_
*1760 _528_
*1761 _529_
*1762 _530_
*1763 _531_
*1764 _532_
*1765 _533_
*1766 _534_
*1767 _535_
*1768 _536_
*1769 _537_
*1770 _538_
*1771 _539_
*1772 _540_
*1773 _541_
*1774 _542_
*1775 _543_
*1776 _544_
*1777 _545_
*1778 _546_
*1779 _547_
*1780 _548_
*1781 _549_
*1782 _550_
*1783 _551_
*1784 _552_
*1785 _553_
*1786 _554_
*1787 _555_
*1788 _556_
*1789 _557_
*1790 _558_
*1791 _559_
*1792 _560_
*1793 _561_
*1794 _562_
*1795 _563_
*1796 _564_
*1797 _565_
*1798 _566_
*1799 _567_
*1800 _568_
*1801 _569_
*1802 _570_
*1803 _571_
*1804 _572_
*1805 _573_
*1806 _574_
*1807 _575_
*1808 _576_
*1809 _577_
*1810 _578_
*1811 _579_
*1812 _580_
*1813 _581_
*1814 _582_
*1815 _583_
*1816 _584_
*1817 _585_
*1818 _586_
*1819 _587_
*1820 _588_
*1821 _589_
*1822 _590_
*1823 _591_
*1824 _592_
*1825 _593_
*1826 _594_
*1827 _595_
*1828 _596_
*1829 _597_
*1830 _598_
*1831 _599_
*1832 _600_
*1833 _601_
*1834 _602_
*1835 _603_
*1836 _604_
*1837 _605_
*1838 _606_
*1839 _607_
*1840 _608_
*1841 _609_
*1842 _610_
*1843 _611_
*1844 _612_
*1845 _613_
*1846 _614_
*1847 _615_
*1848 _616_
*1849 _617_
*1850 _618_
*1851 _619_
*1852 _620_
*1853 _621_
*1854 _622_
*1855 _623_
*1856 _624_
*1857 _625_
*1858 _626_
*1859 _627_
*1860 _628_
*1861 _629_
*1862 _630_
*1863 _631_
*1864 _632_
*1865 _633_
*1866 _634_
*1867 _635_
*1868 _636_
*1869 _637_
*1870 _638_
*1871 _639_
*1872 _640_
*1873 _641_
*1874 _642_
*1875 _643_
*1876 _644_
*1877 _645_
*1878 _646_
*1879 _647_
*1880 _648_
*1881 _649_
*1882 _650_
*1883 _651_
*1884 _652_
*1885 _653_
*1886 _654_
*1887 _655_
*1888 _656_
*1889 _657_
*1890 _658_
*1891 _659_
*1892 _660_
*1893 _661_
*1894 _662_
*1895 _663_
*1896 _664_
*1897 _665_
*1898 _666_
*1899 _667_
*1900 _668_
*1901 _669_
*1902 _670_
*1903 _671_
*1904 _672_
*1905 _673_
*1906 _674_
*1907 _675_
*1908 _676_
*1909 _677_
*1910 _678_
*1911 _679_
*1912 _680_
*1913 _681_
*1914 _682_
*1915 _683_
*1916 _684_
*1917 _685_
*1918 _686_
*1919 _687_
*1920 _688_
*1921 _689_
*1922 _690_
*1923 _691_
*1924 _692_
*1925 _693_
*1926 _694_
*1927 _695_
*1928 _696_
*1929 _697_
*1930 _698_
*1931 _699_
*1932 _700_
*1933 _701_
*1934 _702_
*1935 _703_
*1936 _704_
*1937 _705_
*1938 _706_
*1939 _707_
*1940 _708_
*1941 _709_
*1942 _710_
*1943 _711_
*1944 _712_
*1945 _713_
*1946 _714_
*1947 _715_
*1948 _716_
*1949 _717_
*1950 _718_
*1951 _719_
*1952 _720_
*1953 _721_
*1954 _722_
*1955 _723_
*1956 _724_
*1957 _725_
*1958 _726_
*1959 _727_
*1960 _728_
*1961 _729_
*1962 _730_
*1963 _731_
*1964 _732_
*1965 _733_
*1966 _734_
*1967 _735_
*1968 _736_
*1969 _737_
*1970 _738_
*1971 _739_
*1972 _740_
*1973 _741_
*1974 _742_
*1975 _743_
*1976 _744_
*1977 _745_
*1978 _746_
*1979 _747_
*1980 _748_
*1981 _749_
*1982 _750_
*1983 _751_
*1984 _752_
*1985 _753_
*1986 _754_
*1987 _755_
*1988 _756_
*1989 _757_
*1990 _758_
*1991 _759_
*1992 _760_
*1993 _761_
*1994 _762_
*1995 _763_
*1996 _764_
*1997 _765_
*1998 _766_
*1999 _767_
*2000 _768_
*2001 _769_
*2002 _770_
*2003 _771_
*2004 _772_
*2005 _773_
*2006 _774_
*2007 _775_
*2008 _776_
*2009 _777_
*2010 _778_
*2011 _779_
*2012 _780_
*2013 clkbuf_0_clk
*2014 clkbuf_2_0__f_clk
*2015 clkbuf_2_1__f_clk
*2016 clkbuf_2_2__f_clk
*2017 clkbuf_2_3__f_clk
*2018 clkload0
*2019 clkload1
*2020 clkload2
*2021 fanout35
*2022 fanout36
*2023 fanout37
*2024 fanout38
*2025 hold100
*2026 hold101
*2027 hold102
*2028 hold103
*2029 hold104
*2030 hold105
*2031 hold106
*2032 hold107
*2033 hold108
*2034 hold86
*2035 hold87
*2036 hold88
*2037 hold89
*2038 hold90
*2039 hold91
*2040 hold92
*2041 hold93
*2042 hold94
*2043 hold95
*2044 hold96
*2045 hold97
*2046 hold98
*2047 hold99
*2048 input1
*2049 input10
*2050 input11
*2051 input12
*2052 input13
*2053 input14
*2054 input15
*2055 input16
*2056 input17
*2057 input18
*2058 input19
*2059 input2
*2060 input20
*2061 input21
*2062 input22
*2063 input3
*2064 input4
*2065 input5
*2066 input6
*2067 input7
*2068 input8
*2069 input9
*2070 output23
*2071 output24
*2072 output25
*2073 output26
*2074 output27
*2075 output28
*2076 output29
*2077 output30
*2078 output31
*2079 output32
*2080 output33
*2081 output34
*2082 rebuffer49
*2083 rebuffer50
*2084 rebuffer51
*2085 rebuffer52
*2086 rebuffer53
*2087 rebuffer54
*2088 rebuffer55
*2089 rebuffer56
*2090 rebuffer57
*2091 rebuffer62
*2092 rebuffer63
*2093 rebuffer64
*2094 rebuffer65
*2095 rebuffer69
*2096 rebuffer70
*2097 self_diagnosing_fir
*2098 self_diagnosing_fir_39
*2099 self_diagnosing_fir_40
*2100 self_diagnosing_fir_41
*2101 self_diagnosing_fir_42
*2102 self_diagnosing_fir_43
*2103 self_diagnosing_fir_44
*2104 self_diagnosing_fir_45
*2105 self_diagnosing_fir_46
*2106 self_diagnosing_fir_47
*2107 self_diagnosing_fir_48

*PORTS
clk I
diag_busy O
diag_done O
fault_bit[0] O
fault_bit[1] O
fault_bit[2] O
fault_detected O
fault_location[0] O
fault_location[1] O
fault_type O
fault_vector[0] O
fault_vector[1] O
fault_vector[2] O
fault_vector[3] O
h0[0] I
h0[1] I
h0[2] I
h0[3] I
h1[0] I
h1[1] I
h1[2] I
h1[3] I
h2[0] I
h2[1] I
h2[2] I
h2[3] I
h3[0] I
h3[1] I
h3[2] I
h3[3] I
rst I
start_diag I
x[0] I
x[1] I
x[2] I
x[3] I
y[0] O
y[1] O
y[2] O
y[3] O
y[4] O
y[5] O
y[6] O
y[7] O
y[8] O
y[9] O

*D_NET *3 0.00759515
*CONN
*P clk I
*I *2013:A I *D sky130_fd_sc_hd__clkbuf_16
*CAP
1 clk 0.00141927
2 *2013:A 0.00010753
3 *3:46 0.000441156
4 *3:34 0.000816139
5 *3:26 0.00111095
6 *3:14 0.00204771
7 *2013:A *1942:A 8.18509e-05
8 *2013:A *1942:B 1.00283e-05
9 *2013:A *443:12 4.91172e-06
10 *3:14 *1950:A1 0
11 *3:14 *34:13 0
12 *3:14 *35:15 6.77269e-05
13 *3:14 *54:20 0
14 *3:14 *60:10 0
15 *3:14 *68:10 0.000187662
16 *3:14 *423:8 0.000225701
17 *3:14 *436:8 6.90927e-05
18 *3:14 *471:32 2.79004e-05
19 *3:14 *471:59 0.000191115
20 *3:14 *491:91 5.61311e-05
21 *3:14 *491:100 7.55832e-05
22 *3:14 *491:106 7.39551e-05
23 *3:14 *515:10 0
24 *3:26 *1957:A0 7.95762e-05
25 *3:26 *1959:S 6.29725e-05
26 *3:26 *2029:A 6.69072e-05
27 *3:26 *62:12 0.000130163
28 *3:26 *456:8 1.04213e-05
29 *3:26 *458:14 3.47928e-05
30 *3:26 *458:24 2.99277e-05
31 *3:34 *437:8 2.07484e-05
32 *3:34 *457:10 3.09731e-05
33 *3:34 *458:14 2.95175e-05
34 *3:34 *478:83 9.96425e-06
35 *3:46 *1942:B 9.55074e-07
36 *3:46 *438:8 3.20631e-05
37 *3:46 *438:10 4.17581e-05
*RES
1 clk *3:14 48.7021 
2 *3:14 *3:26 42.5529 
3 *3:26 *3:34 37.4364 
4 *3:34 *3:46 36.1521 
5 *3:46 *2013:A 25.6721 
*END

*D_NET *4 0.00208762
*CONN
*P diag_busy O
*I *2070:X O *D sky130_fd_sc_hd__clkdlybuf4s25_1
*CAP
1 diag_busy 0.000147001
2 *2070:X 0.000494587
3 *4:8 0.000641588
4 diag_busy *2061:A 0.00021017
5 diag_busy *38:15 0.000366675
6 *4:8 *1962:A 0.000180019
7 *4:8 *1984:CLK 0
8 *4:8 *1985:CLK 0
9 *4:8 *38:15 4.75766e-05
*RES
1 *2070:X *4:8 48.1811 
2 *4:8 diag_busy 9.30293 
*END

*D_NET *5 0.00167042
*CONN
*P diag_done O
*I *2071:X O *D sky130_fd_sc_hd__clkdlybuf4s25_1
*CAP
1 diag_done 0.000207967
2 *2071:X 0.000125462
3 *5:8 0.000333429
4 diag_done *27:9 0.000481806
5 diag_done *28:11 0.000484292
6 *5:8 *27:9 2.93845e-05
7 *5:8 *466:6 8.91468e-07
8 *5:8 *466:23 7.18992e-06
*RES
1 *2071:X *5:8 39.5743 
2 *5:8 diag_done 11.7243 
*END

*D_NET *6 0.0012542
*CONN
*P fault_bit[0] O
*I *2097:LO O *D sky130_fd_sc_hd__conb_1
*CAP
1 fault_bit[0] 0.000423425
2 *2097:LO 0.000423425
3 fault_bit[0] fault_location[1] 0.000399132
4 fault_bit[0] y[6] 0
5 fault_bit[0] *45:10 8.21456e-06
*RES
1 *2097:LO fault_bit[0] 49.7835 
*END

*D_NET *7 0.0011582
*CONN
*P fault_bit[1] O
*I *2098:LO O *D sky130_fd_sc_hd__conb_1
*CAP
1 fault_bit[1] 0.000385033
2 *2098:LO 0.000385033
3 fault_bit[1] fault_vector[2] 0.000281585
4 fault_bit[1] *15:10 0.00010655
*RES
1 *2098:LO fault_bit[1] 49.5889 
*END

*D_NET *8 0.00127889
*CONN
*P fault_bit[2] O
*I *2099:LO O *D sky130_fd_sc_hd__conb_1
*CAP
1 fault_bit[2] 0.000104622
2 *2099:LO 0.000308932
3 *8:10 0.000413554
4 fault_bit[2] fault_type 0.000156329
5 fault_bit[2] *23:13 0
6 *8:10 *10:10 0
7 *8:10 *12:10 0.000295449
*RES
1 *2099:LO *8:10 44.8668 
2 *8:10 fault_bit[2] 8.53013 
*END

*D_NET *9 0.00129099
*CONN
*P fault_detected O
*I *2100:LO O *D sky130_fd_sc_hd__conb_1
*CAP
1 fault_detected 0.000245673
2 *2100:LO 0.000245673
3 fault_detected fault_location[1] 0.000393041
4 fault_detected fault_vector[3] 0.000406604
*RES
1 *2100:LO fault_detected 49.0792 
*END

*D_NET *10 0.0012508
*CONN
*P fault_location[0] O
*I *2101:LO O *D sky130_fd_sc_hd__conb_1
*CAP
1 fault_location[0] 3.15753e-05
2 *2101:LO 0.000387027
3 *10:10 0.000418602
4 fault_location[0] fault_type 0.000107978
5 fault_location[0] fault_vector[2] 0.000107978
6 *10:10 *12:10 1.221e-05
7 *10:10 *15:10 0.000185434
8 *8:10 *10:10 0
*RES
1 *2101:LO *10:10 45.1154 
2 *10:10 fault_location[0] 8.3584 
*END

*D_NET *11 0.00152953
*CONN
*P fault_location[1] O
*I *2102:LO O *D sky130_fd_sc_hd__conb_1
*CAP
1 fault_location[1] 0.000341233
2 *2102:LO 0.000341233
3 fault_location[1] fault_vector[3] 5.48904e-05
4 fault_bit[0] fault_location[1] 0.000399132
5 fault_detected fault_location[1] 0.000393041
*RES
1 *2102:LO fault_location[1] 48.8043 
*END

*D_NET *12 0.00138498
*CONN
*P fault_type O
*I *2103:LO O *D sky130_fd_sc_hd__conb_1
*CAP
1 fault_type 0.000123585
2 *2103:LO 0.000250307
3 *12:10 0.000373892
4 fault_type fault_vector[2] 6.52251e-05
5 fault_bit[2] fault_type 0.000156329
6 fault_location[0] fault_type 0.000107978
7 *8:10 *12:10 0.000295449
8 *10:10 *12:10 1.221e-05
*RES
1 *2103:LO *12:10 43.8104 
2 *12:10 fault_type 8.78773 
*END

*D_NET *13 0.00144221
*CONN
*P fault_vector[0] O
*I *2104:LO O *D sky130_fd_sc_hd__conb_1
*CAP
1 fault_vector[0] 0.000397373
2 *2104:LO 6.80678e-05
3 *13:8 0.000465441
4 fault_vector[0] fault_vector[1] 0.000511329
*RES
1 *2104:LO *13:8 39.0979 
2 *13:8 fault_vector[0] 12.4286 
*END

*D_NET *14 0.00139092
*CONN
*P fault_vector[1] O
*I *2105:LO O *D sky130_fd_sc_hd__conb_1
*CAP
1 fault_vector[1] 0.000397373
2 *2105:LO 4.24211e-05
3 *14:8 0.000439795
4 fault_vector[0] fault_vector[1] 0.000511329
*RES
1 *2105:LO *14:8 38.6214 
2 *14:8 fault_vector[1] 12.4286 
*END

*D_NET *15 0.00156102
*CONN
*P fault_vector[2] O
*I *2106:LO O *D sky130_fd_sc_hd__conb_1
*CAP
1 fault_vector[2] 0.00015157
2 *2106:LO 0.000255556
3 *15:10 0.000407126
4 fault_bit[1] fault_vector[2] 0.000281585
5 fault_bit[1] *15:10 0.00010655
6 fault_location[0] fault_vector[2] 0.000107978
7 fault_type fault_vector[2] 6.52251e-05
8 *10:10 *15:10 0.000185434
*RES
1 *2106:LO *15:10 43.5825 
2 *15:10 fault_vector[2] 8.95947 
*END

*D_NET *16 0.00123407
*CONN
*P fault_vector[3] O
*I *2107:LO O *D sky130_fd_sc_hd__conb_1
*CAP
1 fault_vector[3] 0.000386289
2 *2107:LO 0.000386289
3 fault_detected fault_vector[3] 0.000406604
4 fault_location[1] fault_vector[3] 5.48904e-05
*RES
1 *2107:LO fault_vector[3] 48.1 
*END

*D_NET *17 0.00102404
*CONN
*P h0[0] I
*I *2048:A I *D sky130_fd_sc_hd__buf_6
*CAP
1 h0[0] 0.000512022
2 *2048:A 0
3 *17:13 0.000512022
*RES
1 h0[0] *17:13 32.0835 
2 *17:13 *2048:A 23 
*END

*D_NET *18 0.00109905
*CONN
*P h0[1] I
*I *2059:A I *D sky130_fd_sc_hd__buf_12
*CAP
1 h0[1] 0.000494983
2 *2059:A 0
3 *18:13 0.000494983
4 *18:13 *19:11 5.28502e-05
5 *18:13 *21:13 5.62385e-05
*RES
1 h0[1] *18:13 32.3113 
2 *18:13 *2059:A 23 
*END

*D_NET *19 0.00133507
*CONN
*P h0[2] I
*I *2063:A I *D sky130_fd_sc_hd__dlymetal6s2s_1
*CAP
1 h0[2] 0.000628928
2 *2063:A 0
3 *19:11 0.000628928
4 *19:11 *20:11 0
5 *19:11 *21:13 2.43662e-05
6 *19:11 *440:86 0
7 *18:13 *19:11 5.28502e-05
*RES
1 h0[2] *19:11 28.1454 
2 *19:11 *2063:A 23 
*END

*D_NET *20 0.00158977
*CONN
*P h0[3] I
*I *2064:A I *D sky130_fd_sc_hd__clkdlybuf4s25_1
*CAP
1 h0[3] 0.000661049
2 *2064:A 0
3 *20:11 0.000661049
4 *20:11 *22:11 0.000210966
5 *20:11 *311:8 5.67069e-05
6 *20:11 *440:86 0
7 *20:11 *440:99 0
8 *19:11 *20:11 0
*RES
1 h0[3] *20:11 31.3147 
2 *20:11 *2064:A 23 
*END

*D_NET *21 0.00100856
*CONN
*P h1[0] I
*I *2065:A I *D sky130_fd_sc_hd__clkbuf_2
*CAP
1 h1[0] 0.000463978
2 *2065:A 0
3 *21:13 0.000463978
4 *18:13 *21:13 5.62385e-05
5 *19:11 *21:13 2.43662e-05
*RES
1 h1[0] *21:13 30.598 
2 *21:13 *2065:A 23 
*END

*D_NET *22 0.00177575
*CONN
*P h1[1] I
*I *2066:A I *D sky130_fd_sc_hd__clkbuf_2
*CAP
1 h1[1] 0.000729427
2 *2066:A 0
3 *22:11 0.000729427
4 *22:11 *1834:A 0
5 *22:11 *1885:A 0
6 *22:11 *23:13 0
7 *22:11 *311:8 0.000105932
8 *20:11 *22:11 0.000210966
*RES
1 h1[1] *22:11 32.8092 
2 *22:11 *2066:A 23 
*END

*D_NET *23 0.000928899
*CONN
*P h1[2] I
*I *2067:A I *D sky130_fd_sc_hd__dlymetal6s2s_1
*CAP
1 h1[2] 0.00046445
2 *2067:A 0
3 *23:13 0.00046445
4 fault_bit[2] *23:13 0
5 *22:11 *23:13 0
*RES
1 h1[2] *23:13 29.6926 
2 *23:13 *2067:A 23 
*END

*D_NET *24 0.00136889
*CONN
*P h1[3] I
*I *2068:A I *D sky130_fd_sc_hd__clkdlybuf4s25_1
*CAP
1 h1[3] 0.000672929
2 *2068:A 0
3 *24:9 0.000672929
4 *24:9 *514:8 2.30292e-05
*RES
1 h1[3] *24:9 29.7175 
2 *24:9 *2068:A 23 
*END

*D_NET *25 0.00139092
*CONN
*P h2[0] I
*I *2069:A I *D sky130_fd_sc_hd__clkdlybuf4s25_1
*CAP
1 h2[0] 0.000439795
2 *2069:A 0
3 *25:9 0.000439795
4 *25:9 y[0] 0.000511329
*RES
1 h2[0] *25:9 28.05 
2 *25:9 *2069:A 23 
*END

*D_NET *26 0.00205976
*CONN
*P h2[1] I
*I *2049:A I *D sky130_fd_sc_hd__dlymetal6s4s_1
*CAP
1 h2[1] 0.000621902
2 *2049:A 0
3 *26:7 0.000621902
4 *26:7 y[0] 0.000592851
5 *26:7 *1731:B1 0
6 *26:7 *124:10 0
7 *26:7 *447:43 0.000166532
8 *26:7 *465:10 0
9 *26:7 *519:10 5.26204e-05
10 *26:7 *519:38 3.95159e-06
*RES
1 h2[1] *26:7 33.0629 
2 *26:7 *2049:A 23 
*END

*D_NET *27 0.00151974
*CONN
*P h2[2] I
*I *2050:A I *D sky130_fd_sc_hd__clkdlybuf4s25_1
*CAP
1 h2[2] 0.000476876
2 *2050:A 0
3 *27:9 0.000476876
4 *27:9 *28:11 0
5 *27:9 *466:23 5.47927e-05
6 *27:9 *479:10 0
7 diag_done *27:9 0.000481806
8 *5:8 *27:9 2.93845e-05
*RES
1 h2[2] *27:9 29.0029 
2 *27:9 *2050:A 23 
*END

*D_NET *28 0.00152216
*CONN
*P h2[3] I
*I *2051:A I *D sky130_fd_sc_hd__clkdlybuf4s25_1
*CAP
1 h2[3] 0.000498675
2 *2051:A 0
3 *28:11 0.000498675
4 *28:11 *466:6 4.05196e-05
5 diag_done *28:11 0.000484292
6 *27:9 *28:11 0
*RES
1 h2[3] *28:11 29.1479 
2 *28:11 *2051:A 23 
*END

*D_NET *29 0.00197866
*CONN
*P h3[0] I
*I *2052:A I *D sky130_fd_sc_hd__clkbuf_2
*CAP
1 h3[0] 0.000598059
2 *2052:A 0
3 *29:11 0.000598059
4 *29:11 y[2] 0.000571578
5 *29:11 y[3] 0
6 *29:11 *227:8 0
7 *29:11 *340:10 0.000210966
*RES
1 h3[0] *29:11 27.9943 
2 *29:11 *2052:A 23 
*END

*D_NET *30 0.000994649
*CONN
*P h3[1] I
*I *2053:A I *D sky130_fd_sc_hd__clkbuf_2
*CAP
1 h3[1] 0.000388504
2 *2053:A 0.000388504
3 *2053:A y[3] 0.000217641
4 *2053:A *340:10 0
*RES
1 h3[1] *2053:A 48.813 
*END

*D_NET *31 0.000953386
*CONN
*P h3[2] I
*I *2054:A I *D sky130_fd_sc_hd__dlymetal6s4s_1
*CAP
1 h3[2] 0.000476693
2 *2054:A 0.000476693
3 *2054:A y[4] 0
4 *2054:A *294:8 0
*RES
1 h3[2] *2054:A 49.0792 
*END

*D_NET *32 0.00208725
*CONN
*P h3[3] I
*I *2055:A I *D sky130_fd_sc_hd__clkdlybuf4s25_1
*CAP
1 h3[3] 0.000699432
2 *2055:A 0
3 *32:9 0.000699432
4 *32:9 y[9] 0.000551691
5 *32:9 *1937:B1 0
6 *32:9 *404:8 8.41115e-05
7 *32:9 *470:8 5.25848e-05
*RES
1 h3[3] *32:9 33.3632 
2 *32:9 *2055:A 23 
*END

*D_NET *33 0.00164732
*CONN
*P rst I
*I *2056:A I *D sky130_fd_sc_hd__clkdlybuf4s25_1
*CAP
1 rst 0.000702239
2 *2056:A 0
3 *33:13 0.000702239
4 *33:13 *34:13 0.000242846
5 *33:13 *491:91 0
6 *33:13 *491:100 0
*RES
1 rst *33:13 34.9364 
2 *33:13 *2056:A 23 
*END

*D_NET *34 0.00152935
*CONN
*P start_diag I
*I *2057:A I *D sky130_fd_sc_hd__clkdlybuf4s25_1
*CAP
1 start_diag 0.000643251
2 *2057:A 0
3 *34:13 0.000643251
4 *34:13 *423:8 0
5 *3:14 *34:13 0
6 *33:13 *34:13 0.000242846
*RES
1 start_diag *34:13 33.4894 
2 *34:13 *2057:A 23 
*END

*D_NET *35 0.00251543
*CONN
*P x[0] I
*I *2058:A I *D sky130_fd_sc_hd__clkdlybuf4s25_1
*CAP
1 x[0] 0.0011873
2 *2058:A 0
3 *35:15 0.0011873
4 *35:15 *2061:A 0
5 *35:15 *36:13 5.44766e-05
6 *35:15 *64:16 1.86283e-05
7 *35:15 *491:106 0
8 *3:14 *35:15 6.77269e-05
*RES
1 x[0] *35:15 36.7268 
2 *35:15 *2058:A 23 
*END

*D_NET *36 0.00180528
*CONN
*P x[1] I
*I *2060:A I *D sky130_fd_sc_hd__clkdlybuf4s25_1
*CAP
1 x[1] 0.000823109
2 *2060:A 0
3 *36:13 0.000823109
4 *36:13 *2061:A 0.00010459
5 *35:15 *36:13 5.44766e-05
*RES
1 x[1] *36:13 39.2773 
2 *36:13 *2060:A 23 
*END

*D_NET *37 0.00200572
*CONN
*P x[2] I
*I *2061:A I *D sky130_fd_sc_hd__clkdlybuf4s25_1
*CAP
1 x[2] 0.000781874
2 *2061:A 0.000781874
3 *2061:A *409:28 8.14704e-05
4 *2061:A *458:24 0
5 *2061:A *460:8 4.5745e-05
6 diag_busy *2061:A 0.00021017
7 *35:15 *2061:A 0
8 *36:13 *2061:A 0.00010459
*RES
1 x[2] *2061:A 49.1783 
*END

*D_NET *38 0.00211133
*CONN
*P x[3] I
*I *2062:A I *D sky130_fd_sc_hd__clkdlybuf4s25_1
*CAP
1 x[3] 0.000641331
2 *2062:A 0
3 *38:15 0.000641331
4 *38:15 *2022:A 2.87553e-05
5 *38:15 *66:10 2.7237e-05
6 *38:15 *492:8 0.000358425
7 diag_busy *38:15 0.000366675
8 *4:8 *38:15 4.75766e-05
*RES
1 x[3] *38:15 32.6789 
2 *38:15 *2062:A 23 
*END

*D_NET *39 0.00186658
*CONN
*P y[0] O
*I *2072:X O *D sky130_fd_sc_hd__clkdlybuf4s25_1
*CAP
1 y[0] 0.000311207
2 *2072:X 4.24857e-05
3 *39:8 0.000353693
4 y[0] *465:10 0
5 *39:8 *209:6 5.50106e-05
6 *25:9 y[0] 0.000511329
7 *26:7 y[0] 0.000592851
*RES
1 *2072:X *39:8 38.6214 
2 *39:8 y[0] 14.5414 
*END

*D_NET *40 0.00152397
*CONN
*P y[1] O
*I *2073:X O *D sky130_fd_sc_hd__clkdlybuf4s25_1
*CAP
1 y[1] 0.000277929
2 *2073:X 0.000282445
3 *40:8 0.000560374
4 y[1] y[2] 0.000403225
5 *40:8 *340:10 0
6 *40:8 *481:10 0
*RES
1 *2073:X *40:8 43.2511 
2 *40:8 y[1] 9.3496 
*END

*D_NET *41 0.0018213
*CONN
*P y[2] O
*I *2074:X O *D sky130_fd_sc_hd__dlymetal6s2s_1
*CAP
1 y[2] 0.000383102
2 *2074:X 0.000383102
3 y[2] *340:10 8.02925e-05
4 y[1] y[2] 0.000403225
5 *29:11 y[2] 0.000571578
*RES
1 *2074:X y[2] 49.0619 
*END

*D_NET *42 0.00108393
*CONN
*P y[3] O
*I *2075:X O *D sky130_fd_sc_hd__buf_6
*CAP
1 y[3] 0.000433146
2 *2075:X 0.000433146
3 y[3] *483:10 0
4 *2053:A y[3] 0.000217641
5 *29:11 y[3] 0
*RES
1 *2075:X y[3] 48.9847 
*END

*D_NET *43 0.00291341
*CONN
*P y[4] O
*I *2076:X O *D sky130_fd_sc_hd__buf_6
*CAP
1 y[4] 0.000972372
2 *2076:X 0.000270348
3 *43:8 0.00124272
4 *43:8 *1744:B 9.27917e-05
5 *43:8 *206:10 0.000111148
6 *43:8 *222:35 0.000168754
7 *43:8 *241:8 5.5274e-05
8 *43:8 *291:10 0
9 *43:8 *340:10 0
10 *43:8 *484:8 0
11 *2054:A y[4] 0
*RES
1 *2076:X *43:8 45.0118 
2 *43:8 y[4] 10.6376 
*END

*D_NET *44 0.00130217
*CONN
*P y[5] O
*I *2077:X O *D sky130_fd_sc_hd__buf_6
*CAP
1 y[5] 0.000304787
2 *2077:X 0.000346298
3 *44:8 0.000651085
*RES
1 *2077:X *44:8 44.815 
2 *44:8 y[5] 13.4844 
*END

*D_NET *45 0.00208749
*CONN
*P y[6] O
*I *2078:X O *D sky130_fd_sc_hd__buf_6
*CAP
1 y[6] 0.000318863
2 *2078:X 0.000562554
3 *45:10 0.000881417
4 *45:10 *2078:A 0.000185428
5 *45:10 *487:8 0.000131009
6 fault_bit[0] y[6] 0
7 fault_bit[0] *45:10 8.21456e-06
*RES
1 *2078:X *45:10 49.3411 
2 *45:10 y[6] 9.17787 
*END

*D_NET *46 0.00133904
*CONN
*P y[7] O
*I *2079:X O *D sky130_fd_sc_hd__buf_6
*CAP
1 y[7] 0.000629334
2 *2079:X 4.01848e-05
3 *46:8 0.000669519
*RES
1 *2079:X *46:8 38.6214 
2 *46:8 y[7] 13.7439 
*END

*D_NET *47 0.001632
*CONN
*P y[8] O
*I *2080:X O *D sky130_fd_sc_hd__buf_6
*CAP
1 y[8] 0.000629334
2 *2080:X 0.000108806
3 *47:8 0.00073814
4 *47:8 *1937:A1 9.90162e-05
5 *47:8 *2080:A 5.67058e-05
*RES
1 *2080:X *47:8 40.5271 
2 *47:8 y[8] 13.7439 
*END

*D_NET *48 0.00200528
*CONN
*P y[9] O
*I *2081:X O *D sky130_fd_sc_hd__buf_6
*CAP
1 y[9] 0.000425845
2 *2081:X 0.00021734
3 *48:10 0.000643185
4 *48:10 *1937:A1 6.87362e-05
5 *48:10 *2081:A 9.84794e-05
6 *32:9 y[9] 0.000551691
*RES
1 *2081:X *48:10 41.5007 
2 *48:10 y[9] 13.3918 
*END

*D_NET *49 0.000508269
*CONN
*I *2002:D I *D sky130_fd_sc_hd__dfxtp_2
*I *1949:X O *D sky130_fd_sc_hd__and2_2
*CAP
1 *2002:D 1.3026e-05
2 *1949:X 0.000128338
3 *49:10 0.000141364
4 *49:10 *2002:CLK 3.36312e-06
5 *49:10 *55:8 0.000166387
6 *49:10 *437:8 5.5792e-05
*RES
1 *1949:X *49:10 40.8793 
2 *49:10 *2002:D 38.1916 
*END

*D_NET *50 0.00114099
*CONN
*I *2003:D I *D sky130_fd_sc_hd__dfxtp_2
*I *1948:X O *D sky130_fd_sc_hd__and2_2
*CAP
1 *2003:D 0.000122365
2 *1948:X 0.000179057
3 *50:10 0.000301423
4 *2003:D *2045:A 9.67842e-05
5 *2003:D *416:25 1.34175e-05
6 *50:10 *1948:B 0.000300287
7 *50:10 *434:10 5.56203e-05
8 *50:10 *491:31 6.71408e-06
9 *50:10 *491:35 6.53183e-05
*RES
1 *1948:X *50:10 42.9921 
2 *50:10 *2003:D 39.8902 
*END

*D_NET *51 0.000846456
*CONN
*I *2004:D I *D sky130_fd_sc_hd__dfxtp_2
*I *1947:X O *D sky130_fd_sc_hd__and2_2
*CAP
1 *2004:D 0.000102779
2 *1947:X 9.94816e-05
3 *51:8 0.000202261
4 *2004:D *419:18 0.00027663
5 *51:8 *407:34 0
6 *51:8 *491:10 0.000165304
*RES
1 *1947:X *51:8 40.2579 
2 *51:8 *2004:D 41.0502 
*END

*D_NET *52 0.00033985
*CONN
*I *2005:D I *D sky130_fd_sc_hd__dfxtp_2
*I *1946:X O *D sky130_fd_sc_hd__and2_2
*CAP
1 *2005:D 4.73674e-05
2 *1946:X 6.47943e-05
3 *52:8 0.000112162
4 *52:8 *526:10 0.000115526
*RES
1 *1946:X *52:8 39.5536 
2 *52:8 *2005:D 38.668 
*END

*D_NET *53 0.00158402
*CONN
*I *2006:D I *D sky130_fd_sc_hd__dfxtp_2
*I *1945:X O *D sky130_fd_sc_hd__and2_2
*CAP
1 *2006:D 3.27463e-05
2 *1945:X 0.000412471
3 *53:10 0.000445218
4 *2006:D *421:12 0.000114952
5 *2006:D *421:16 5.50106e-05
6 *2006:D *424:10 0.000169963
7 *53:10 *2009:CLK 0
8 *53:10 *56:14 5.50049e-05
9 *53:10 *427:8 0.000142085
10 *53:10 *493:88 0
11 *53:10 *493:94 0.000156572
*RES
1 *1945:X *53:10 44.8979 
2 *53:10 *2006:D 39.8902 
*END

*D_NET *54 0.00684902
*CONN
*I *2007:D I *D sky130_fd_sc_hd__dfxtp_2
*I *1944:X O *D sky130_fd_sc_hd__and2_2
*CAP
1 *2007:D 0
2 *1944:X 0.000107541
3 *54:20 0.00292429
4 *54:10 0.00303183
5 *54:10 *58:10 0
6 *54:10 *528:10 0
7 *54:20 *2007:CLK 0.000146207
8 *54:20 *60:10 1.34542e-05
9 *54:20 *417:12 0.000159674
10 *54:20 *418:81 0
11 *54:20 *419:33 0
12 *54:20 *471:59 0
13 *54:20 *515:10 0.0003929
14 *54:20 *517:20 7.31339e-05
15 *3:14 *54:20 0
*RES
1 *1944:X *54:10 47.7296 
2 *54:10 *54:20 37.3385 
3 *54:20 *2007:D 23 
*END

*D_NET *55 0.00185588
*CONN
*I *2008:D I *D sky130_fd_sc_hd__dfxtp_2
*I *1942:X O *D sky130_fd_sc_hd__and2_2
*CAP
1 *2008:D 0.00035232
2 *1942:X 0.000292065
3 *55:8 0.000644385
4 *2008:D *1956:A1 2.33782e-05
5 *2008:D *1956:A2 0.000100477
6 *2008:D *2008:CLK 5.3304e-05
7 *55:8 *1949:A 0.000182705
8 *55:8 *410:10 3.64394e-05
9 *55:8 *438:10 4.41821e-06
10 *49:10 *55:8 0.000166387
*RES
1 *1942:X *55:8 45.1879 
2 *55:8 *2008:D 43.7016 
*END

*D_NET *56 0.00140752
*CONN
*I *2009:D I *D sky130_fd_sc_hd__dfxtp_2
*I *1941:X O *D sky130_fd_sc_hd__and2_2
*CAP
1 *2009:D 1.13183e-05
2 *1941:X 0.000368322
3 *56:14 0.00037964
4 *2009:D *1967:B 1.64354e-05
5 *56:14 *1941:A 0.00014196
6 *56:14 *2009:CLK 4.21594e-06
7 *56:14 *427:8 0.000200024
8 *56:14 *493:94 0.000230604
9 *56:14 *522:21 0
10 *53:10 *56:14 5.50049e-05
*RES
1 *1941:X *56:14 45.685 
2 *56:14 *2009:D 38.1916 
*END

*D_NET *57 0.000380509
*CONN
*I *2010:D I *D sky130_fd_sc_hd__dfxtp_2
*I *1940:X O *D sky130_fd_sc_hd__and2_2
*CAP
1 *2010:D 1.13183e-05
2 *1940:X 0.000101276
3 *57:8 0.000112594
4 *2010:D *419:16 1.64354e-05
5 *57:8 *1940:B 0.000138886
6 *57:8 *1948:B 0
*RES
1 *1940:X *57:8 40.2579 
2 *57:8 *2010:D 38.1916 
*END

*D_NET *58 0.00172382
*CONN
*I *2011:D I *D sky130_fd_sc_hd__dfxtp_2
*I *1939:X O *D sky130_fd_sc_hd__and2_2
*CAP
1 *2011:D 9.09527e-05
2 *1939:X 0.000566703
3 *58:10 0.000657656
4 *2011:D *2011:CLK 0.000189687
5 *58:10 *1944:A 5.83407e-05
6 *58:10 *1988:CLK 0.00016048
7 *58:10 *479:10 0
8 *54:10 *58:10 0
*RES
1 *1939:X *58:10 48.585 
2 *58:10 *2011:D 40.0973 
*END

*D_NET *59 0.000565277
*CONN
*I *2012:D I *D sky130_fd_sc_hd__dfxtp_2
*I *1938:X O *D sky130_fd_sc_hd__and2_2
*CAP
1 *2012:D 6.10335e-05
2 *1938:X 0.000147021
3 *59:10 0.000208054
4 *59:10 *2012:CLK 0.000141038
5 *59:10 *2019:A 3.7122e-06
6 *59:10 *448:14 4.41821e-06
*RES
1 *1938:X *59:10 40.8793 
2 *59:10 *2012:D 38.9943 
*END

*D_NET *60 0.000366294
*CONN
*I *2035:A I *D sky130_fd_sc_hd__dlygate4sd3_1
*I *1950:X O *D sky130_fd_sc_hd__a211o_2
*CAP
1 *2035:A 0
2 *1950:X 0.000131549
3 *60:10 0.000131549
4 *60:10 *472:10 5.67058e-05
5 *60:10 *515:10 3.30361e-05
6 *3:14 *60:10 0
7 *54:20 *60:10 1.34542e-05
*RES
1 *1950:X *60:10 40.5271 
2 *60:10 *2035:A 38 
*END

*D_NET *61 0.00313964
*CONN
*I *2042:A I *D sky130_fd_sc_hd__dlygate4sd3_1
*I *1951:X O *D sky130_fd_sc_hd__o41a_2
*CAP
1 *2042:A 0
2 *1951:X 0.000589486
3 *61:12 0.000261481
4 *61:6 0.000850967
5 *61:6 *1951:A3 0.000351519
6 *61:6 *1964:C 0.000184527
7 *61:6 *425:12 0.000141954
8 *61:6 *425:14 0.000606254
9 *61:6 *493:37 0.000153455
10 *61:12 *2012:CLK 0
11 *61:12 *425:8 0
*RES
1 *1951:X *61:6 37.4379 
2 *61:6 *61:12 35.075 
3 *61:12 *2042:A 23 
*END

*D_NET *62 0.00196935
*CONN
*I *1981:D I *D sky130_fd_sc_hd__dfxtp_2
*I *1954:Y O *D sky130_fd_sc_hd__nor2_2
*CAP
1 *1981:D 0
2 *1954:Y 0.000609274
3 *62:12 0.000609274
4 *62:12 *1954:B 0.000166888
5 *62:12 *1981:CLK 5.75756e-06
6 *62:12 *460:8 0.000165384
7 *62:12 *476:6 0.000232049
8 *62:12 *478:21 4.63936e-05
9 *62:12 *478:45 4.16878e-06
10 *3:26 *62:12 0.000130163
*RES
1 *1954:Y *62:12 49.0355 
2 *62:12 *1981:D 38 
*END

*D_NET *63 0.000363379
*CONN
*I *1982:D I *D sky130_fd_sc_hd__dfxtp_2
*I *1956:X O *D sky130_fd_sc_hd__o21a_2
*CAP
1 *1982:D 0.000153789
2 *1956:X 0.000153789
3 *1982:D *1956:A2 5.58003e-05
*RES
1 *1956:X *1982:D 48.3666 
*END

*D_NET *64 0.00264965
*CONN
*I *1983:D I *D sky130_fd_sc_hd__dfxtp_2
*I *1958:X O *D sky130_fd_sc_hd__and2_2
*CAP
1 *1983:D 0.000117184
2 *1958:X 0.000234823
3 *64:16 0.000850866
4 *64:8 0.000968504
5 *1983:D *409:28 0.000353206
6 *64:16 *411:8 4.06037e-05
7 *64:16 *473:8 6.58399e-05
8 *35:15 *64:16 1.86283e-05
*RES
1 *1958:X *64:8 42.0186 
2 *64:8 *64:16 41.0407 
3 *64:16 *1983:D 41.7959 
*END

*D_NET *65 0.00139563
*CONN
*I *1984:D I *D sky130_fd_sc_hd__dfxtp_2
*I *1960:X O *D sky130_fd_sc_hd__and2_2
*CAP
1 *1984:D 8.82022e-05
2 *1960:X 0.000304557
3 *65:10 0.00039276
4 *1984:D *1963:A_N 0.00010795
5 *1984:D *1963:B 0.000159874
6 *1984:D *1984:CLK 0.000182832
7 *65:10 *1960:B 3.26241e-05
8 *65:10 *1962:A 0
9 *65:10 *67:8 1.83564e-05
10 *65:10 *413:10 4.58924e-05
11 *65:10 *458:24 0
12 *65:10 *460:8 0
13 *65:10 *471:59 6.25872e-05
*RES
1 *1960:X *65:10 43.3443 
2 *65:10 *1984:D 42.0186 
*END

*D_NET *66 0.00088078
*CONN
*I *1985:D I *D sky130_fd_sc_hd__dfxtp_2
*I *1962:X O *D sky130_fd_sc_hd__and2_2
*CAP
1 *1985:D 1.66233e-05
2 *1962:X 0.000240689
3 *66:10 0.000257312
4 *66:10 *1984:CLK 8.51329e-05
5 *66:10 *1985:CLK 8.41115e-05
6 *66:10 *67:8 0.000169674
7 *66:10 *478:64 0
8 *38:15 *66:10 2.7237e-05
*RES
1 *1962:X *66:10 43.4686 
2 *66:10 *1985:D 38.1916 
*END

*D_NET *67 0.00092331
*CONN
*I *1986:D I *D sky130_fd_sc_hd__dfxtp_2
*I *1963:X O *D sky130_fd_sc_hd__and3b_2
*CAP
1 *1986:D 1.13183e-05
2 *1963:X 0.000305697
3 *67:8 0.000317015
4 *1986:D *420:62 1.64354e-05
5 *67:8 *1984:CLK 8.48131e-05
6 *67:8 *413:10 0
7 *67:8 *460:8 0
8 *67:8 *478:64 0
9 *65:10 *67:8 1.83564e-05
10 *66:10 *67:8 0.000169674
*RES
1 *1963:X *67:8 44.4836 
2 *67:8 *1986:D 38.1916 
*END

*D_NET *68 0.00149589
*CONN
*I *1987:D I *D sky130_fd_sc_hd__dfxtp_2
*I *1966:X O *D sky130_fd_sc_hd__and2_2
*CAP
1 *1987:D 0.000211601
2 *1966:X 0.000163004
3 *68:10 0.000374605
4 *1987:D *1987:CLK 0.000127885
5 *68:10 *1966:B 5.50049e-05
6 *68:10 *471:59 0.000376132
7 *3:14 *68:10 0.000187662
*RES
1 *1966:X *68:10 43.6964 
2 *68:10 *1987:D 42.0186 
*END

*D_NET *69 0.000345883
*CONN
*I *1988:D I *D sky130_fd_sc_hd__dfxtp_2
*I *1967:X O *D sky130_fd_sc_hd__and2_2
*CAP
1 *1988:D 0.000145439
2 *1967:X 0.000145439
3 *1988:D *1988:CLK 5.50049e-05
*RES
1 *1967:X *1988:D 48.3666 
*END

*D_NET *70 0.000803101
*CONN
*I *1989:D I *D sky130_fd_sc_hd__dfxtp_2
*I *1968:X O *D sky130_fd_sc_hd__and2_2
*CAP
1 *1989:D 4.87161e-05
2 *1968:X 0.000288091
3 *70:8 0.000336807
4 *1989:D *2022:A 3.24476e-06
5 *1989:D *416:71 8.06804e-06
6 *70:8 *416:46 0.000118174
7 *70:8 *418:15 0
8 *70:8 *418:47 0
9 *70:8 *438:10 0
10 *70:8 *445:23 0
*RES
1 *1968:X *70:8 43.4271 
2 *70:8 *1989:D 38.668 
*END

*D_NET *71 0.000466931
*CONN
*I *1990:D I *D sky130_fd_sc_hd__dfxtp_2
*I *1969:X O *D sky130_fd_sc_hd__and2_2
*CAP
1 *1990:D 0.000178657
2 *1969:X 0.000178657
3 *1990:D *1990:CLK 0.000109616
*RES
1 *1969:X *1990:D 49.0088 
*END

*D_NET *72 0.0010032
*CONN
*I *1991:D I *D sky130_fd_sc_hd__dfxtp_2
*I *1970:X O *D sky130_fd_sc_hd__and2_2
*CAP
1 *1991:D 5.76628e-05
2 *1970:X 0.000318544
3 *72:10 0.000376207
4 *72:10 *73:8 0
5 *72:10 *420:8 0.000171906
6 *72:10 *439:19 0
7 *72:10 *492:53 7.88828e-05
*RES
1 *1970:X *72:10 44.2971 
2 *72:10 *1991:D 38.9943 
*END

*D_NET *73 0.00173609
*CONN
*I *1992:D I *D sky130_fd_sc_hd__dfxtp_2
*I *1971:X O *D sky130_fd_sc_hd__and2_2
*CAP
1 *1992:D 0.000232941
2 *1971:X 0.000347362
3 *73:8 0.000580303
4 *1992:D *1989:CLK 7.17006e-05
5 *1992:D *1992:CLK 5.50049e-05
6 *1992:D *2022:A 8.96607e-05
7 *73:8 *420:8 0
8 *73:8 *420:10 0
9 *73:8 *420:12 0
10 *73:8 *440:8 8.85189e-05
11 *73:8 *492:34 0.000270603
12 *72:10 *73:8 0
*RES
1 *1971:X *73:8 46.2443 
2 *73:8 *1992:D 42.7487 
*END

*D_NET *74 0.000800568
*CONN
*I *1993:D I *D sky130_fd_sc_hd__dfxtp_2
*I *1972:X O *D sky130_fd_sc_hd__and2_2
*CAP
1 *1993:D 3.93911e-05
2 *1972:X 0.000263101
3 *74:10 0.000302492
4 *1993:D *1993:CLK 8.90341e-05
5 *74:10 *1973:A 0.00010655
6 *74:10 *422:28 0
7 *74:10 *459:8 0
*RES
1 *1972:X *74:10 42.3086 
2 *74:10 *1993:D 38.9943 
*END

*D_NET *75 0.000478374
*CONN
*I *1994:D I *D sky130_fd_sc_hd__dfxtp_2
*I *1973:X O *D sky130_fd_sc_hd__and2_2
*CAP
1 *1994:D 8.18872e-06
2 *1973:X 0.000216562
3 *75:10 0.00022475
4 *1994:D *1994:CLK 1.64354e-05
5 *75:10 *1973:B 1.24376e-05
*RES
1 *1973:X *75:10 41.0036 
2 *75:10 *1994:D 38.1916 
*END

*D_NET *76 0.000747125
*CONN
*I *1995:D I *D sky130_fd_sc_hd__dfxtp_2
*I *1974:X O *D sky130_fd_sc_hd__and2_2
*CAP
1 *1995:D 5.85432e-05
2 *1974:X 0.000220919
3 *76:10 0.000279463
4 *76:10 *418:31 2.76611e-06
5 *76:10 *443:22 0
6 *76:10 *494:23 9.84851e-05
7 *76:10 *494:32 8.6949e-05
*RES
1 *1974:X *76:10 41.6043 
2 *76:10 *1995:D 38.9373 
*END

*D_NET *77 0.00108599
*CONN
*I *1996:D I *D sky130_fd_sc_hd__dfxtp_2
*I *1975:X O *D sky130_fd_sc_hd__and2_2
*CAP
1 *1996:D 1.01088e-05
2 *1975:X 0.000432505
3 *77:10 0.000442614
4 *1996:D *1996:CLK 1.64354e-05
5 *77:10 *1975:B 8.79488e-05
6 *77:10 *422:80 0
7 *77:10 *443:22 9.63815e-05
*RES
1 *1975:X *77:10 44.5664 
2 *77:10 *1996:D 38.1916 
*END

*D_NET *78 0.000441068
*CONN
*I *1997:D I *D sky130_fd_sc_hd__dfxtp_2
*I *1976:X O *D sky130_fd_sc_hd__and2_2
*CAP
1 *1997:D 5.00824e-05
2 *1976:X 6.37978e-05
3 *78:8 0.00011388
4 *1997:D *447:16 8.16097e-05
5 *78:8 *1976:B 0.000110258
6 *78:8 *447:8 2.14404e-05
*RES
1 *1976:X *78:8 39.5536 
2 *78:8 *1997:D 38.9373 
*END

*D_NET *79 0.000687111
*CONN
*I *1998:D I *D sky130_fd_sc_hd__dfxtp_2
*I *1977:X O *D sky130_fd_sc_hd__and2_2
*CAP
1 *1998:D 0.000103099
2 *1977:X 0.000240457
3 *79:8 0.000343556
4 *79:8 *1679:A3 0
5 *79:8 *80:12 0
6 *79:8 *155:12 0
*RES
1 *1977:X *79:8 42.3707 
2 *79:8 *1998:D 39.6209 
*END

*D_NET *80 0.00168288
*CONN
*I *1999:D I *D sky130_fd_sc_hd__dfxtp_2
*I *1978:X O *D sky130_fd_sc_hd__and2_2
*CAP
1 *1999:D 0
2 *1978:X 0
3 *80:12 0.000624071
4 *80:6 0.000624071
5 *80:12 *1999:CLK 0
6 *80:12 *81:10 0
7 *80:12 *108:8 3.24476e-06
8 *80:12 *109:8 1.64354e-05
9 *80:12 *422:10 0.000167443
10 *80:12 *422:94 0
11 *80:12 *449:19 0
12 *80:12 *463:8 2.79004e-05
13 *80:12 *494:45 0.000149341
14 *80:12 *494:47 7.03766e-05
15 *79:8 *80:12 0
*RES
1 *1978:X *80:6 38 
2 *80:6 *80:12 28.0138 
3 *80:12 *1999:D 23 
*END

*D_NET *81 0.000843184
*CONN
*I *2000:D I *D sky130_fd_sc_hd__dfxtp_2
*I *1979:X O *D sky130_fd_sc_hd__and2_2
*CAP
1 *2000:D 9.26771e-06
2 *1979:X 0.000294704
3 *81:10 0.000303972
4 *2000:D *141:14 1.64354e-05
5 *2000:D *155:8 4.9054e-06
6 *81:10 *1999:CLK 4.6318e-06
7 *81:10 *422:14 5.41385e-05
8 *81:10 *422:24 7.59794e-05
9 *81:10 *422:94 7.91493e-05
10 *80:12 *81:10 0
*RES
1 *1979:X *81:10 42.785 
2 *81:10 *2000:D 38.1916 
*END

*D_NET *82 0.00132283
*CONN
*I *1606:A I *D sky130_fd_sc_hd__nand2_2
*I *1706:A1 I *D sky130_fd_sc_hd__a32o_2
*I *1603:X O *D sky130_fd_sc_hd__a22o_2
*CAP
1 *1606:A 3.41077e-05
2 *1706:A1 0
3 *1603:X 0.000138246
4 *82:14 0.000231343
5 *82:8 0.000403697
6 *82:8 *444:31 0
7 *82:14 *1606:B 0.000166504
8 *82:14 *1706:A2 0.00025307
9 *82:14 *85:8 5.50955e-05
10 *82:14 *86:10 4.07715e-05
11 *82:14 *88:14 0
*RES
1 *1603:X *82:8 25.4236 
2 *82:8 *82:14 36.4836 
3 *82:14 *1706:A1 23 
4 *82:8 *1606:A 23.6214 
*END

*D_NET *83 0.00129574
*CONN
*I *1702:A I *D sky130_fd_sc_hd__and3_2
*I *1703:B1 I *D sky130_fd_sc_hd__a21oi_2
*I *1604:X O *D sky130_fd_sc_hd__and4_2
*CAP
1 *1702:A 0
2 *1703:B1 0
3 *1604:X 7.72857e-05
4 *83:20 0.000123035
5 *83:12 0.000167558
6 *83:8 0.000121809
7 *83:8 *178:23 0.000114083
8 *83:8 *443:112 4.9224e-05
9 *83:8 *514:33 0.000191157
10 *83:12 *1702:C 9.41704e-05
11 *83:12 *443:112 2.02872e-05
12 *83:12 *443:126 5.3304e-05
13 *83:20 *178:23 0.000164282
14 *83:20 *181:10 3.22879e-05
15 *83:20 *256:14 3.71369e-05
16 *83:20 *257:10 5.01247e-05
*RES
1 *1604:X *83:8 40.61 
2 *83:8 *83:12 16.0979 
3 *83:12 *83:20 33.3557 
4 *83:20 *1703:B1 23 
5 *83:12 *1702:A 23 
*END

*D_NET *84 0.00140088
*CONN
*I *1706:A2 I *D sky130_fd_sc_hd__a32o_2
*I *1606:B I *D sky130_fd_sc_hd__nand2_2
*I *1605:Y O *D sky130_fd_sc_hd__nand4_2
*CAP
1 *1706:A2 6.11638e-05
2 *1606:B 9.09955e-05
3 *1605:Y 0.000108912
4 *84:10 0.000261071
5 *1606:B *444:122 2.96369e-05
6 *1606:B *497:71 0
7 *1606:B *497:75 2.76611e-06
8 *1706:A2 *1608:B 0.000227497
9 *1706:A2 *86:10 1.14452e-05
10 *1706:A2 *444:122 4.99753e-06
11 *84:10 *1605:D 0
12 *84:10 *173:8 0.000182826
13 *82:14 *1606:B 0.000166504
14 *82:14 *1706:A2 0.00025307
*RES
1 *1605:Y *84:10 40.5479 
2 *84:10 *1606:B 40.2579 
3 *84:10 *1706:A2 41.3143 
*END

*D_NET *85 0.000454067
*CONN
*I *1608:A I *D sky130_fd_sc_hd__xnor2_2
*I *1606:Y O *D sky130_fd_sc_hd__nand2_2
*CAP
1 *1608:A 3.09722e-05
2 *1606:Y 7.05695e-05
3 *85:8 0.000101542
4 *1608:A *173:8 2.93747e-05
5 *85:8 *88:14 0.000166513
6 *82:14 *85:8 5.50955e-05
*RES
1 *1606:Y *85:8 40.2579 
2 *85:8 *1608:A 38.6214 
*END

*D_NET *86 0.0010939
*CONN
*I *1706:A3 I *D sky130_fd_sc_hd__a32o_2
*I *1608:B I *D sky130_fd_sc_hd__xnor2_2
*I *1607:X O *D sky130_fd_sc_hd__and2_2
*CAP
1 *1706:A3 0
2 *1608:B 0.000108243
3 *1607:X 0.000224838
4 *86:10 0.000333081
5 *1608:B *443:62 0
6 *1608:B *443:81 0
7 *1608:B *444:122 6.07611e-06
8 *86:10 *172:6 0.000141954
9 *86:10 *443:81 0
10 *86:10 *506:22 0
11 *1706:A2 *1608:B 0.000227497
12 *1706:A2 *86:10 1.14452e-05
13 *82:14 *86:10 4.07715e-05
*RES
1 *1607:X *86:10 41.8321 
2 *86:10 *1608:B 40.9621 
3 *86:10 *1706:A3 38 
*END

*D_NET *87 0.00109207
*CONN
*I *1706:B1 I *D sky130_fd_sc_hd__a32o_2
*I *1611:A I *D sky130_fd_sc_hd__xnor2_2
*I *1608:Y O *D sky130_fd_sc_hd__xnor2_2
*CAP
1 *1706:B1 0.000297617
2 *1611:A 0.000163606
3 *1608:Y 0
4 *87:6 0.000461223
5 *1611:A *88:14 0
6 *1611:A *173:14 0
7 *1706:B1 *88:6 0.000132503
8 *1706:B1 *88:14 0
9 *1706:B1 *173:14 0
10 *1706:B1 *184:12 3.71251e-05
*RES
1 *1608:Y *87:6 38 
2 *87:6 *1611:A 40.9621 
3 *87:6 *1706:B1 43.9864 
*END

*D_NET *88 0.00145615
*CONN
*I *1706:B2 I *D sky130_fd_sc_hd__a32o_2
*I *1611:B I *D sky130_fd_sc_hd__xnor2_2
*I *1609:X O *D sky130_fd_sc_hd__and4_2
*CAP
1 *1706:B2 0
2 *1611:B 0
3 *1609:X 0.00022678
4 *88:14 0.000351788
5 *88:6 0.000578568
6 *1611:A *88:14 0
7 *1706:B1 *88:6 0.000132503
8 *1706:B1 *88:14 0
9 *82:14 *88:14 0
10 *85:8 *88:14 0.000166513
*RES
1 *1609:X *88:6 26.9564 
2 *88:6 *88:14 36.8771 
3 *88:14 *1611:B 23 
4 *88:6 *1706:B2 23 
*END

*D_NET *89 0.00188304
*CONN
*I *1625:A1 I *D sky130_fd_sc_hd__a22oi_2
*I *1624:A I *D sky130_fd_sc_hd__and4_2
*I *1610:Y O *D sky130_fd_sc_hd__nand4_2
*CAP
1 *1625:A1 0
2 *1624:A 0
3 *1610:Y 0.000176178
4 *89:30 0.000144387
5 *89:20 0.000383967
6 *89:12 0.000415757
7 *89:12 *1676:B 9.24795e-06
8 *89:12 *106:29 2.5667e-05
9 *89:12 *443:41 3.13452e-05
10 *89:12 *497:75 8.4047e-05
11 *89:12 *497:81 3.04715e-05
12 *89:20 *1625:A2 4.00259e-06
13 *89:20 *91:46 3.00244e-05
14 *89:20 *101:23 5.50106e-05
15 *89:20 *104:8 3.7122e-06
16 *89:30 *1624:B 2.64616e-05
17 *89:30 *101:23 5.3304e-05
18 *89:30 *442:36 2.93747e-05
19 *89:30 *442:77 0.000188926
20 *89:30 *506:36 0.000191157
*RES
1 *1610:Y *89:12 41.1486 
2 *89:12 *89:20 18.5214 
3 *89:20 *89:30 33.8529 
4 *89:30 *1624:A 23 
5 *89:20 *1625:A1 23 
*END

*D_NET *90 0.000600881
*CONN
*I *1621:A I *D sky130_fd_sc_hd__xor2_2
*I *1682:A1 I *D sky130_fd_sc_hd__o21bai_2
*I *1611:Y O *D sky130_fd_sc_hd__xnor2_2
*CAP
1 *1621:A 0
2 *1682:A1 0.00011474
3 *1611:Y 0.000134518
4 *90:8 0.000249258
5 *1682:A1 *99:19 0.000102365
*RES
1 *1611:Y *90:8 40.61 
2 *90:8 *1682:A1 40.9621 
3 *90:8 *1621:A 38 
*END

*D_NET *91 0.00417291
*CONN
*I *1624:B I *D sky130_fd_sc_hd__and4_2
*I *1625:B2 I *D sky130_fd_sc_hd__a22oi_2
*I *1620:A I *D sky130_fd_sc_hd__xor2_2
*I *1619:A_N I *D sky130_fd_sc_hd__and2b_2
*I *1612:Y O *D sky130_fd_sc_hd__nand4_2
*CAP
1 *1624:B 0.000154949
2 *1625:B2 0
3 *1620:A 0
4 *1619:A_N 0.000151483
5 *1612:Y 0.000248912
6 *91:46 0.000420556
7 *91:36 0.000875079
8 *91:29 0.000205387
9 *91:21 0.000585343
10 *91:12 0.000231865
11 *91:10 0.000248912
12 *91:10 *1612:A 5.68958e-05
13 *91:10 *97:14 6.48049e-05
14 *91:10 *445:23 0.000223043
15 *91:29 *445:23 0.000223043
16 *91:46 *1625:A2 0
17 *91:46 *101:8 9.58714e-05
18 *91:46 *101:23 0.000135037
19 *91:46 *103:16 0
20 *91:46 *443:58 0.000195248
21 *89:20 *91:46 3.00244e-05
22 *89:30 *1624:B 2.64616e-05
*RES
1 *1612:Y *91:10 43.9657 
2 *91:10 *91:12 15 
3 *91:12 *1619:A_N 25.5271 
4 *91:12 *91:21 1.09786 
5 *91:21 *91:29 34.06 
6 *91:29 *1620:A 23 
7 *91:21 *91:36 5.38571 
8 *91:36 *91:46 37.4157 
9 *91:46 *1625:B2 23 
10 *91:36 *1624:B 25.0507 
*END

*D_NET *92 0.000528386
*CONN
*I *1615:A I *D sky130_fd_sc_hd__nor2_2
*I *1613:Y O *D sky130_fd_sc_hd__a22oi_2
*CAP
1 *1615:A 6.2494e-05
2 *1613:Y 6.06099e-05
3 *92:8 0.000123104
4 *1615:A *93:8 4.96717e-05
5 *92:8 *439:40 5.86165e-05
6 *92:8 *439:49 4.21594e-06
7 *92:8 *513:8 0.000169674
*RES
1 *1613:Y *92:8 40.2579 
2 *92:8 *1615:A 39.0979 
*END

*D_NET *93 0.00285898
*CONN
*I *1689:B1 I *D sky130_fd_sc_hd__a21o_4
*I *1688:A I *D sky130_fd_sc_hd__nand3_2
*I *1615:B I *D sky130_fd_sc_hd__nor2_2
*I *1614:X O *D sky130_fd_sc_hd__and4_2
*CAP
1 *1689:B1 0.000472455
2 *1688:A 4.47319e-05
3 *1615:B 0
4 *1614:X 0.000191771
5 *93:19 0.000817305
6 *93:8 0.000491889
7 *1688:A *1617:B 3.7122e-06
8 *1688:A *485:20 1.59094e-05
9 *1689:B1 *1687:A 5.3304e-05
10 *1689:B1 *1689:A2 5.55784e-05
11 *1689:B1 *1692:B 1.01436e-05
12 *1689:B1 *165:37 5.50049e-05
13 *1689:B1 *166:8 0
14 *1689:B1 *438:69 1.83667e-05
15 *1689:B1 *438:78 5.96687e-05
16 *1689:B1 *439:66 9.67842e-05
17 *93:19 *94:10 2.93747e-05
18 *93:19 *166:8 0
19 *93:19 *438:69 4.07715e-05
20 *93:19 *439:49 0
21 *93:19 *485:26 0.000352538
22 *93:19 *513:8 0
23 *1615:A *93:8 4.96717e-05
*RES
1 *1614:X *93:8 25.9 
2 *93:8 *1615:B 23 
3 *93:8 *93:19 21.8771 
4 *93:19 *1688:A 38.6214 
5 *93:19 *1689:B1 46.6171 
*END

*D_NET *94 0.00185977
*CONN
*I *1617:C I *D sky130_fd_sc_hd__and3_2
*I *1618:A I *D sky130_fd_sc_hd__xnor2_2
*I *1615:Y O *D sky130_fd_sc_hd__nor2_2
*CAP
1 *1617:C 0
2 *1618:A 0
3 *1615:Y 0.000234954
4 *94:29 0.000408215
5 *94:14 0.000489991
6 *94:10 0.00031673
7 *94:10 *95:10 0.000137594
8 *94:10 *438:69 0.000139865
9 *94:29 *1617:B 2.98475e-06
10 *94:29 *96:10 0.000100061
11 *93:19 *94:10 2.93747e-05
*RES
1 *1615:Y *94:10 41.9564 
2 *94:10 *94:14 16.0979 
3 *94:14 *1618:A 23 
4 *94:14 *94:29 37.2914 
5 *94:29 *1617:C 23 
*END

*D_NET *95 0.000493941
*CONN
*I *1618:B I *D sky130_fd_sc_hd__xnor2_2
*I *1616:Y O *D sky130_fd_sc_hd__nand2_2
*CAP
1 *1618:B 0
2 *1616:Y 0.000165086
3 *95:10 0.000165086
4 *95:10 *438:69 2.61756e-05
5 *94:10 *95:10 0.000137594
*RES
1 *1616:Y *95:10 41.2314 
2 *95:10 *1618:B 38 
*END

*D_NET *96 0.00180469
*CONN
*I *1693:B1 I *D sky130_fd_sc_hd__a21o_4
*I *1692:A I *D sky130_fd_sc_hd__nand3_2
*I *1617:X O *D sky130_fd_sc_hd__and3_2
*CAP
1 *1693:B1 0.000372955
2 *1692:A 0
3 *1617:X 0.00025899
4 *96:10 0.000631945
5 *1693:B1 *1693:A1 7.8043e-05
6 *1693:B1 *170:14 0.000195248
7 *1693:B1 *243:10 0.000167452
8 *94:29 *96:10 0.000100061
*RES
1 *1617:X *96:10 41.9564 
2 *96:10 *1692:A 38 
3 *96:10 *1693:B1 45.3536 
*END

*D_NET *97 0.000713206
*CONN
*I *1619:B I *D sky130_fd_sc_hd__and2b_2
*I *1620:B I *D sky130_fd_sc_hd__xor2_2
*I *1618:Y O *D sky130_fd_sc_hd__xnor2_2
*CAP
1 *1619:B 0
2 *1620:B 0.000242054
3 *1618:Y 0.000113428
4 *97:14 0.000128626
5 *97:14 *98:8 0.000141879
6 *97:14 *445:23 2.24151e-05
7 *91:10 *97:14 6.48049e-05
*RES
1 *1618:Y *1620:B 24.9782 
2 *1620:B *97:14 33.3143 
3 *97:14 *1619:B 23 
*END

*D_NET *98 0.00252975
*CONN
*I *1694:A I *D sky130_fd_sc_hd__nand3_2
*I *1766:A1 I *D sky130_fd_sc_hd__a21bo_4
*I *1695:B1 I *D sky130_fd_sc_hd__a21o_4
*I *1619:X O *D sky130_fd_sc_hd__and2b_2
*CAP
1 *1694:A 0.00018183
2 *1766:A1 0
3 *1695:B1 6.80978e-05
4 *1619:X 0.000257208
5 *98:19 0.00028351
6 *98:8 0.000426986
7 *1694:A *1694:C 1.41077e-05
8 *1694:A *170:29 6.32688e-05
9 *1694:A *172:6 5.50049e-05
10 *1694:A *445:23 0.000141869
11 *98:8 *445:23 0.00057083
12 *98:19 *1695:A1 6.38947e-05
13 *98:19 *170:29 4.6318e-06
14 *98:19 *171:10 6.7177e-06
15 *98:19 *445:23 0.000249918
16 *97:14 *98:8 0.000141879
*RES
1 *1619:X *98:8 45.54 
2 *98:8 *1695:B1 39.0979 
3 *98:8 *98:19 3.31429 
4 *98:19 *1766:A1 38 
5 *98:19 *1694:A 41.8529 
*END

*D_NET *99 0.00208805
*CONN
*I *1682:A2 I *D sky130_fd_sc_hd__o21bai_2
*I *1621:B I *D sky130_fd_sc_hd__xor2_2
*I *1620:X O *D sky130_fd_sc_hd__xor2_2
*CAP
1 *1682:A2 0
2 *1621:B 0.000992844
3 *1620:X 0.000893529
4 *99:19 9.93149e-05
5 *99:19 *100:8 0
6 *1682:A1 *99:19 0.000102365
*RES
1 *1620:X *1621:B 38.3182 
2 *1621:B *99:19 32.61 
3 *99:19 *1682:A2 23 
*END

*D_NET *100 0.00158528
*CONN
*I *1629:B1 I *D sky130_fd_sc_hd__o21a_2
*I *1630:A I *D sky130_fd_sc_hd__nor3_2
*I *1621:X O *D sky130_fd_sc_hd__xor2_2
*CAP
1 *1629:B1 0.000130035
2 *1630:A 7.18503e-05
3 *1621:X 0.000269545
4 *100:8 0.00047143
5 *1629:B1 *1630:B 1.76557e-05
6 *1629:B1 *1630:C 0.000156058
7 *1629:B1 *1999:CLK 5.3304e-05
8 *1629:B1 *108:8 0.000315852
9 *1630:A *1999:CLK 9.202e-05
10 *1630:A *109:8 7.53384e-06
11 *100:8 *160:10 0
12 *99:19 *100:8 0
*RES
1 *1621:X *100:8 42.7229 
2 *100:8 *1630:A 39.4707 
3 *100:8 *1629:B1 42.93 
*END

*D_NET *101 0.00142164
*CONN
*I *1624:C I *D sky130_fd_sc_hd__and4_2
*I *1625:A2 I *D sky130_fd_sc_hd__a22oi_2
*I *1622:X O *D sky130_fd_sc_hd__a22o_2
*CAP
1 *1624:C 0
2 *1625:A2 1.83025e-05
3 *1622:X 9.05356e-05
4 *101:23 0.000126148
5 *101:8 0.000234986
6 *101:8 *442:36 1.40958e-05
7 *101:8 *443:58 0.000141954
8 *101:23 *1624:D 0.000222113
9 *101:23 *442:36 1.03955e-05
10 *101:23 *442:77 0.000219882
11 *89:20 *1625:A2 4.00259e-06
12 *89:20 *101:23 5.50106e-05
13 *89:30 *101:23 5.3304e-05
14 *91:46 *1625:A2 0
15 *91:46 *101:8 9.58714e-05
16 *91:46 *101:23 0.000135037
*RES
1 *1622:X *101:8 25.5479 
2 *101:8 *1625:A2 23.4971 
3 *101:8 *101:23 34.5364 
4 *101:23 *1624:C 23 
*END

*D_NET *102 0.00393111
*CONN
*I *1624:D I *D sky130_fd_sc_hd__and4_2
*I *1625:B1 I *D sky130_fd_sc_hd__a22oi_2
*I *1623:X O *D sky130_fd_sc_hd__a22o_2
*CAP
1 *1624:D 7.12831e-05
2 *1625:B1 0
3 *1623:X 0.0007956
4 *102:10 0.000245817
5 *102:6 0.000970134
6 *1624:D *442:77 6.61686e-06
7 *1624:D *444:31 0.00025214
8 *102:6 *1627:A 0.00039759
9 *102:6 *1676:B 0.000352415
10 *102:6 *492:53 0.000119145
11 *102:6 *497:81 5.91638e-05
12 *102:10 *442:32 5.66921e-05
13 *102:10 *442:77 3.0647e-05
14 *102:10 *443:22 8.47428e-05
15 *102:10 *444:31 0.000267012
16 *101:23 *1624:D 0.000222113
*RES
1 *1623:X *102:6 35.0557 
2 *102:6 *102:10 18.6664 
3 *102:10 *1625:B1 38 
4 *102:10 *1624:D 41.3143 
*END

*D_NET *103 0.00228853
*CONN
*I *1626:A I *D sky130_fd_sc_hd__nor2_2
*I *1630:B I *D sky130_fd_sc_hd__nor3_2
*I *1629:A1 I *D sky130_fd_sc_hd__o21a_2
*I *1624:X O *D sky130_fd_sc_hd__and4_2
*CAP
1 *1626:A 0
2 *1630:B 0.000236236
3 *1629:A1 2.34823e-05
4 *1624:X 0.000424573
5 *103:16 0.000499723
6 *103:12 0.000240005
7 *103:10 0.000424573
8 *1629:A1 *104:8 0
9 *1630:B *1630:C 0.000359332
10 *103:10 *107:12 0
11 *103:10 *497:75 0
12 *103:16 *104:8 6.29487e-05
13 *1629:B1 *1630:B 1.76557e-05
14 *91:46 *103:16 0
*RES
1 *1624:X *103:10 43.7379 
2 *103:10 *103:12 15 
3 *103:12 *103:16 4.45357 
4 *103:16 *1629:A1 23.4971 
5 *103:16 *1630:B 28.4064 
6 *103:12 *1626:A 23 
*END

*D_NET *104 0.000516872
*CONN
*I *1626:B I *D sky130_fd_sc_hd__nor2_2
*I *1625:Y O *D sky130_fd_sc_hd__a22oi_2
*CAP
1 *1626:B 0
2 *1625:Y 0.000225106
3 *104:8 0.000225106
4 *1629:A1 *104:8 0
5 *89:20 *104:8 3.7122e-06
6 *103:16 *104:8 6.29487e-05
*RES
1 *1625:Y *104:8 27.4536 
2 *104:8 *1626:B 23 
*END

*D_NET *105 0.000672101
*CONN
*I *1661:A I *D sky130_fd_sc_hd__nor2_2
*I *1628:A I *D sky130_fd_sc_hd__and2_2
*I *1626:Y O *D sky130_fd_sc_hd__nor2_2
*CAP
1 *1661:A 0
2 *1628:A 4.98983e-05
3 *1626:Y 0.000142965
4 *105:10 4.98983e-05
5 *105:8 0.000142965
6 *1628:A *1628:B 0.000143655
7 *1628:A *1676:B 0
8 *1628:A *106:29 3.61695e-05
9 *1628:A *155:8 0.00010655
10 *105:8 *107:12 0
11 *105:8 *497:75 0
*RES
1 *1626:Y *105:8 39.9057 
2 *105:8 *105:10 15 
3 *105:10 *1628:A 25.5479 
4 *105:10 *1661:A 23 
*END

*D_NET *106 0.00283481
*CONN
*I *1628:B I *D sky130_fd_sc_hd__and2_2
*I *1661:B I *D sky130_fd_sc_hd__nor2_2
*I *1676:A I *D sky130_fd_sc_hd__nor2_2
*I *1627:X O *D sky130_fd_sc_hd__and4_2
*CAP
1 *1628:B 5.02963e-05
2 *1661:B 0
3 *1676:A 0
4 *1627:X 0.000803389
5 *106:29 0.00031299
6 *106:18 0.000288744
7 *106:12 0.000829439
8 *1628:B *1662:B 0.000143655
9 *1628:B *155:8 3.53115e-05
10 *106:12 *1622:A1 5.58873e-06
11 *106:12 *418:31 0
12 *106:18 *497:75 2.33476e-05
13 *106:29 *1676:B 4.58055e-05
14 *106:29 *155:8 7.97636e-05
15 *106:29 *497:81 1.09903e-05
16 *1628:A *1628:B 0.000143655
17 *1628:A *106:29 3.61695e-05
18 *89:12 *106:29 2.5667e-05
*RES
1 *1627:X *106:12 47.8368 
2 *106:12 *106:18 23.3211 
3 *106:18 *1676:A 23 
4 *106:18 *106:29 5.90357 
5 *106:29 *1661:B 23 
6 *106:29 *1628:B 25.5271 
*END

*D_NET *107 0.00157838
*CONN
*I *1662:A I *D sky130_fd_sc_hd__or2_2
*I *1630:C I *D sky130_fd_sc_hd__nor3_2
*I *1629:A2 I *D sky130_fd_sc_hd__o21a_2
*I *1628:X O *D sky130_fd_sc_hd__and2_2
*CAP
1 *1662:A 0.000151147
2 *1630:C 7.86133e-05
3 *1629:A2 0
4 *1628:X 0
5 *107:12 0.000281634
6 *107:4 0.000354168
7 *1662:A *1662:B 8.6949e-05
8 *1662:A *155:8 1.02949e-05
9 *107:12 *1662:B 0.00010018
10 *107:12 *1999:CLK 0
11 *1629:B1 *1630:C 0.000156058
12 *1630:B *1630:C 0.000359332
13 *103:10 *107:12 0
14 *105:8 *107:12 0
*RES
1 *1628:X *107:4 23 
2 *107:4 *107:12 33.0036 
3 *107:12 *1629:A2 23 
4 *107:12 *1630:C 26.9564 
5 *107:4 *1662:A 25.5479 
*END

*D_NET *108 0.00728465
*CONN
*I *1643:A I *D sky130_fd_sc_hd__nor3_2
*I *1644:A1 I *D sky130_fd_sc_hd__o21a_2
*I *1682:B1_N I *D sky130_fd_sc_hd__o21bai_2
*I *1629:X O *D sky130_fd_sc_hd__o21a_2
*CAP
1 *1643:A 0
2 *1644:A1 0.000154828
3 *1682:B1_N 0
4 *1629:X 0.00074789
5 *108:27 0.00123821
6 *108:16 0.000474476
7 *108:8 0.00230575
8 *1644:A1 *1644:A2 1.88594e-05
9 *1644:A1 *352:11 0.00022943
10 *108:8 *1999:CLK 0.000122226
11 *108:8 *109:8 5.16639e-05
12 *108:16 *160:8 0.000361027
13 *108:16 *453:10 0
14 *108:27 *1641:A 5.41288e-05
15 *108:27 *1644:A2 4.21594e-06
16 *108:27 *1663:A1 2.64616e-05
17 *108:27 *1663:A2 5.41385e-05
18 *108:27 *109:8 0.000121078
19 *108:27 *109:14 0.000525512
20 *108:27 *121:10 0
21 *108:27 *352:11 0.000119828
22 *108:27 *452:10 0.000355822
23 *1629:B1 *108:8 0.000315852
24 *80:12 *108:8 3.24476e-06
*RES
1 *1629:X *108:8 34.6 
2 *108:8 *108:16 39.425 
3 *108:16 *1682:B1_N 23 
4 *108:8 *108:27 39.4221 
5 *108:27 *1644:A1 42.0807 
6 *108:27 *1643:A 38 
*END

*D_NET *109 0.00544125
*CONN
*I *1643:B I *D sky130_fd_sc_hd__nor3_2
*I *1644:A2 I *D sky130_fd_sc_hd__o21a_2
*I *1630:Y O *D sky130_fd_sc_hd__nor3_2
*CAP
1 *1643:B 0
2 *1644:A2 0.000209737
3 *1630:Y 0.000820474
4 *109:14 0.00121756
5 *109:8 0.0018283
6 *1644:A2 *1644:B1 0.000162656
7 *1644:A2 *144:25 4.95081e-05
8 *109:8 *1999:CLK 7.06229e-05
9 *109:14 *1641:A 0.00010018
10 *109:14 *1644:B1 6.07611e-06
11 *109:14 *1663:A1 5.3304e-05
12 *109:14 *1663:A2 9.84851e-05
13 *109:14 *121:10 7.90568e-05
14 *1630:A *109:8 7.53384e-06
15 *1644:A1 *1644:A2 1.88594e-05
16 *80:12 *109:8 1.64354e-05
17 *108:8 *109:8 5.16639e-05
18 *108:27 *1644:A2 4.21594e-06
19 *108:27 *109:8 0.000121078
20 *108:27 *109:14 0.000525512
*RES
1 *1630:Y *109:8 35.3146 
2 *109:8 *109:14 35.2689 
3 *109:14 *1644:A2 42.8886 
4 *109:14 *1643:B 38 
*END

*D_NET *110 0.00207047
*CONN
*I *1635:A I *D sky130_fd_sc_hd__or3b_4
*I *2082:A I *D sky130_fd_sc_hd__buf_2
*I *1631:X O *D sky130_fd_sc_hd__and4_2
*CAP
1 *1635:A 2.83609e-05
2 *2082:A 0
3 *1631:X 0.000287787
4 *110:14 0.000190289
5 *110:6 0.000506437
6 *1635:A *1635:B 4.2573e-05
7 *1635:A *1635:C_N 9.67842e-05
8 *1635:A *115:8 2.18409e-05
9 *110:6 *1631:B 4.39488e-05
10 *110:6 *1635:B 0.000255579
11 *110:6 *1635:C_N 0.000436762
12 *110:6 *113:14 2.76028e-05
13 *110:6 *451:60 6.17437e-06
14 *110:14 *450:64 0
15 *110:14 *468:8 4.06849e-05
16 *110:14 *496:10 8.56515e-05
*RES
1 *1631:X *110:6 30.2914 
2 *110:6 *110:14 34.06 
3 *110:14 *2082:A 23 
4 *110:6 *1635:A 24.0979 
*END

*D_NET *111 0.0019357
*CONN
*I *1719:A I *D sky130_fd_sc_hd__xnor2_2
*I *1636:A1 I *D sky130_fd_sc_hd__a21bo_2
*I *1632:Y O *D sky130_fd_sc_hd__inv_2
*CAP
1 *1719:A 2.77218e-05
2 *1636:A1 0
3 *1632:Y 0.000476755
4 *111:26 0.000122585
5 *111:10 0.000381892
6 *1719:A *188:10 2.64616e-05
7 *1719:A *189:16 5.3304e-05
8 *111:10 *1635:C_N 6.16439e-05
9 *111:10 *112:10 1.14452e-05
10 *111:10 *450:64 0.000163352
11 *111:10 *467:86 3.39231e-05
12 *111:10 *469:8 0.00044107
13 *111:26 *1720:A 0
14 *111:26 *1807:A1 0.000135547
*RES
1 *1632:Y *111:10 45.1671 
2 *111:10 *1636:A1 38 
3 *1632:Y *111:26 39.9057 
4 *111:26 *1719:A 38.6214 
*END

*D_NET *112 0.00268752
*CONN
*I *1635:C_N I *D sky130_fd_sc_hd__or3b_4
*I *1636:A2 I *D sky130_fd_sc_hd__a21bo_2
*I *1633:X O *D sky130_fd_sc_hd__a22o_2
*CAP
1 *1635:C_N 0.000439698
2 *1636:A2 0
3 *1633:X 0.000185985
4 *112:10 0.000625683
5 *1635:C_N *114:10 7.43641e-05
6 *1635:C_N *114:23 2.77232e-05
7 *1635:C_N *115:8 4.5707e-05
8 *1635:C_N *467:86 2.60152e-05
9 *112:10 *1633:A2 7.4416e-05
10 *112:10 *450:64 0.000214396
11 *112:10 *467:60 3.0647e-05
12 *112:10 *467:71 6.79006e-05
13 *112:10 *467:86 3.3123e-05
14 *112:10 *468:8 5.50106e-05
15 *112:10 *468:14 0.000180212
16 *1635:A *1635:C_N 9.67842e-05
17 *110:6 *1635:C_N 0.000436762
18 *111:10 *1635:C_N 6.16439e-05
19 *111:10 *112:10 1.14452e-05
*RES
1 *1633:X *112:10 43.8414 
2 *112:10 *1636:A2 38 
3 *112:10 *1635:C_N 47.5907 
*END

*D_NET *113 0.00143189
*CONN
*I *1635:B I *D sky130_fd_sc_hd__or3b_4
*I *1636:B1_N I *D sky130_fd_sc_hd__a21bo_2
*I *1634:Y O *D sky130_fd_sc_hd__nand2_2
*CAP
1 *1635:B 7.49987e-05
2 *1636:B1_N 0
3 *1634:Y 0.00022333
4 *113:14 8.99901e-05
5 *113:10 0.000238322
6 *1635:B *115:8 0.000184527
7 *113:10 *1634:A 5.50049e-05
8 *113:10 *450:64 0.000100615
9 *113:10 *469:8 0.000139352
10 *113:10 *496:10 0
11 *1635:A *1635:B 4.2573e-05
12 *110:6 *1635:B 0.000255579
13 *110:6 *113:14 2.76028e-05
*RES
1 *1634:Y *113:10 42.5364 
2 *113:10 *113:14 15.3211 
3 *113:14 *1636:B1_N 23 
4 *113:14 *1635:B 26.3039 
*END

*D_NET *114 0.00212002
*CONN
*I *1725:A I *D sky130_fd_sc_hd__xor2_2
*I *1724:A I *D sky130_fd_sc_hd__or3_2
*I *1637:A I *D sky130_fd_sc_hd__and2_2
*I *1635:X O *D sky130_fd_sc_hd__or3b_4
*CAP
1 *1725:A 6.22458e-05
2 *1724:A 0
3 *1637:A 0
4 *1635:X 5.47443e-05
5 *114:23 0.000361098
6 *114:10 0.000353597
7 *1725:A *199:8 0.000211979
8 *1725:A *201:8 0.000196549
9 *1725:A *202:10 1.47563e-05
10 *114:10 *115:8 0.000149562
11 *114:23 *1723:A 0.000114092
12 *114:23 *1723:B 0.000180224
13 *114:23 *115:8 3.53115e-05
14 *114:23 *199:8 8.94487e-05
15 *114:23 *201:8 0.000194327
16 *1635:C_N *114:10 7.43641e-05
17 *1635:C_N *114:23 2.77232e-05
*RES
1 *1635:X *114:10 25.5686 
2 *114:10 *1637:A 23 
3 *114:10 *114:23 22.0636 
4 *114:23 *1724:A 38 
5 *114:23 *1725:A 40.9621 
*END

*D_NET *115 0.00105784
*CONN
*I *1637:B I *D sky130_fd_sc_hd__and2_2
*I *1636:X O *D sky130_fd_sc_hd__a21bo_2
*CAP
1 *1637:B 0
2 *1636:X 0.000310444
3 *115:8 0.000310444
4 *115:8 *1723:B 0
5 *1635:A *115:8 2.18409e-05
6 *1635:B *115:8 0.000184527
7 *1635:C_N *115:8 4.5707e-05
8 *114:10 *115:8 0.000149562
9 *114:23 *115:8 3.53115e-05
*RES
1 *1636:X *115:8 29.8357 
2 *115:8 *1637:B 23 
*END

*D_NET *116 0.0013878
*CONN
*I *1640:A I *D sky130_fd_sc_hd__nand2_2
*I *1641:A I *D sky130_fd_sc_hd__or2_2
*I *1637:X O *D sky130_fd_sc_hd__and2_2
*CAP
1 *1640:A 8.54035e-05
2 *1641:A 0.000153028
3 *1637:X 7.26226e-05
4 *116:8 0.000311054
5 *1640:A *1642:B 5.3304e-05
6 *1640:A *119:8 0
7 *1640:A *468:8 1.14762e-05
8 *1641:A *1640:B 0
9 *1641:A *118:19 0
10 *1641:A *120:8 0.000166513
11 *1641:A *352:11 0.000265999
12 *116:8 *352:11 0.000114092
13 *116:8 *496:10 0
14 *108:27 *1641:A 5.41288e-05
15 *109:14 *1641:A 0.00010018
*RES
1 *1637:X *116:8 39.5536 
2 *116:8 *1641:A 42.7643 
3 *116:8 *1640:A 39.595 
*END

*D_NET *117 0.000279962
*CONN
*I *1677:A I *D sky130_fd_sc_hd__xnor2_2
*I *1638:Y O *D sky130_fd_sc_hd__nand2_2
*CAP
1 *1677:A 0
2 *1638:Y 6.47605e-05
3 *117:8 6.47605e-05
4 *117:8 *1679:A3 4.21594e-06
5 *117:8 *155:12 5.86165e-05
6 *117:8 *450:19 8.76088e-05
*RES
1 *1638:Y *117:8 40.2579 
2 *117:8 *1677:A 38 
*END

*D_NET *118 0.0020683
*CONN
*I *1640:B I *D sky130_fd_sc_hd__nand2_2
*I *1641:B I *D sky130_fd_sc_hd__or2_2
*I *1664:A I *D sky130_fd_sc_hd__or2_2
*I *1639:X O *D sky130_fd_sc_hd__and4_2
*CAP
1 *1640:B 0.000163597
2 *1641:B 0
3 *1664:A 0
4 *1639:X 7.28112e-05
5 *118:19 0.000618856
6 *118:8 0.00052807
7 *1640:B *120:8 5.50955e-05
8 *118:8 *141:14 0.000198545
9 *118:8 *450:51 5.67058e-05
10 *118:19 *1665:B 2.93845e-05
11 *118:19 *141:14 0.000202649
12 *118:19 *143:6 4.5051e-05
13 *118:19 *144:10 6.7063e-05
14 *118:19 *352:11 0
15 *118:19 *467:8 2.30292e-05
16 *118:19 *467:10 7.44161e-06
17 *1641:A *1640:B 0
18 *1641:A *118:19 0
*RES
1 *1639:X *118:8 25.5479 
2 *118:8 *1664:A 23 
3 *118:8 *118:19 24.0729 
4 *118:19 *1641:B 38 
5 *118:19 *1640:B 41.3143 
*END

*D_NET *119 0.00277156
*CONN
*I *1797:A1 I *D sky130_fd_sc_hd__o21ai_2
*I *1726:A I *D sky130_fd_sc_hd__xnor2_2
*I *1642:A I *D sky130_fd_sc_hd__nand2_2
*I *1640:Y O *D sky130_fd_sc_hd__nand2_2
*CAP
1 *1797:A1 0.000147369
2 *1726:A 7.36847e-05
3 *1642:A 0
4 *1640:Y 9.17291e-05
5 *119:19 0.000841905
6 *119:8 0.00071258
7 *1726:A *1726:B 8.6949e-05
8 *1726:A *188:10 3.17516e-05
9 *1726:A *189:16 0.000227208
10 *1726:A *203:12 5.50106e-05
11 *1797:A1 *1728:A2 0
12 *1797:A1 *202:10 0
13 *1797:A1 *203:12 0.000111158
14 *119:8 *1642:B 9.5877e-05
15 *119:8 *468:8 9.91798e-05
16 *119:19 *1723:A 0
17 *119:19 *1727:A 0
18 *119:19 *1727:B 0
19 *119:19 *121:10 9.84794e-05
20 *119:19 *201:8 0
21 *119:19 *202:10 0
22 *119:19 *205:10 0
23 *119:19 *223:12 0
24 *119:19 *468:8 9.86742e-05
25 *1640:A *119:8 0
*RES
1 *1640:Y *119:8 25.5479 
2 *119:8 *1642:A 23 
3 *119:8 *119:19 26.8486 
4 *119:19 *1726:A 41.0243 
5 *119:19 *1797:A1 41.3143 
*END

*D_NET *120 0.000680622
*CONN
*I *1642:B I *D sky130_fd_sc_hd__nand2_2
*I *1641:X O *D sky130_fd_sc_hd__or2_2
*CAP
1 *1642:B 7.8248e-05
2 *1641:X 7.05695e-05
3 *120:8 0.000148818
4 *1642:B *468:8 1.21972e-05
5 *1640:A *1642:B 5.3304e-05
6 *1640:B *120:8 5.50955e-05
7 *1641:A *120:8 0.000166513
8 *119:8 *1642:B 9.5877e-05
*RES
1 *1641:X *120:8 40.2579 
2 *120:8 *1642:B 39.5743 
*END

*D_NET *121 0.00155659
*CONN
*I *1643:C I *D sky130_fd_sc_hd__nor3_2
*I *1644:B1 I *D sky130_fd_sc_hd__o21a_2
*I *1642:Y O *D sky130_fd_sc_hd__nand2_2
*CAP
1 *1643:C 0
2 *1644:B1 0.000173547
3 *1642:Y 0.000275894
4 *121:10 0.000449441
5 *1644:B1 *123:10 5.26204e-05
6 *1644:B1 *144:25 0.000139352
7 *121:10 *1658:B 5.08795e-05
8 *121:10 *1748:B 0
9 *121:10 *123:10 1.44546e-05
10 *121:10 *352:11 0
11 *121:10 *468:8 5.41288e-05
12 *1644:A2 *1644:B1 0.000162656
13 *108:27 *121:10 0
14 *109:14 *1644:B1 6.07611e-06
15 *109:14 *121:10 7.90568e-05
16 *119:19 *121:10 9.84794e-05
*RES
1 *1642:Y *121:10 44.525 
2 *121:10 *1644:B1 42.5364 
3 *121:10 *1643:C 38 
*END

*D_NET *122 0.00340001
*CONN
*I *1746:A1 I *D sky130_fd_sc_hd__o211a_2
*I *1747:B1 I *D sky130_fd_sc_hd__a211o_4
*I *1660:A1 I *D sky130_fd_sc_hd__o21ai_2
*I *1658:A I *D sky130_fd_sc_hd__or3_4
*I *1643:Y O *D sky130_fd_sc_hd__nor3_2
*CAP
1 *1746:A1 0.000134453
2 *1747:B1 0
3 *1660:A1 0.000397233
4 *1658:A 0
5 *1643:Y 6.49011e-05
6 *122:39 0.00049536
7 *122:16 0.000214324
8 *122:6 0.000315551
9 *1660:A1 *1660:A2 4.79641e-05
10 *1660:A1 *1660:B1 5.3304e-05
11 *1660:A1 *467:8 0.000127821
12 *1746:A1 *1746:A2 0.000178773
13 *1746:A1 *1746:C1 1.28818e-05
14 *1746:A1 *1817:B1 1.28818e-05
15 *1746:A1 *138:8 1.01436e-05
16 *1746:A1 *223:12 0
17 *1746:A1 *224:14 7.55388e-05
18 *122:6 *1660:A2 2.02872e-05
19 *122:6 *1660:B1 9.67842e-05
20 *122:6 *467:8 0.000181919
21 *122:16 *1658:B 5.50106e-05
22 *122:16 *1658:C 0.000154428
23 *122:16 *1659:A 0
24 *122:16 *136:8 1.58805e-05
25 *122:16 *137:6 0.000180218
26 *122:16 *137:10 0.000161121
27 *122:39 *137:10 0
28 *122:39 *138:8 7.10099e-05
29 *122:39 *224:14 0.000240426
30 *122:39 *241:8 0
31 *122:39 *467:8 8.1796e-05
*RES
1 *1643:Y *122:6 25.0507 
2 *122:6 *122:16 35.1579 
3 *122:16 *1658:A 23 
4 *122:6 *1660:A1 24.5743 
5 *1660:A1 *122:39 45.3536 
6 *122:39 *1747:B1 38 
7 *122:39 *1746:A1 41.3816 
*END

*D_NET *123 0.00204233
*CONN
*I *1658:B I *D sky130_fd_sc_hd__or3_4
*I *1660:A2 I *D sky130_fd_sc_hd__o21ai_2
*I *1644:X O *D sky130_fd_sc_hd__o21a_2
*CAP
1 *1658:B 0.000135053
2 *1660:A2 0.000236497
3 *1644:X 0.000221327
4 *123:10 0.000592877
5 *1658:B *1658:C 7.56417e-05
6 *1660:A2 *1660:B1 0.000137651
7 *1660:A2 *467:8 3.53115e-05
8 *123:10 *1658:C 1.88713e-05
9 *123:10 *136:8 0.000163361
10 *123:10 *144:25 0.000184527
11 *1644:B1 *123:10 5.26204e-05
12 *1660:A1 *1660:A2 4.79641e-05
13 *121:10 *1658:B 5.08795e-05
14 *121:10 *123:10 1.44546e-05
15 *122:6 *1660:A2 2.02872e-05
16 *122:16 *1658:B 5.50106e-05
*RES
1 *1644:X *123:10 42.6607 
2 *123:10 *1660:A2 42.4536 
3 *123:10 *1658:B 40.8793 
*END

*D_NET *124 0.00461265
*CONN
*I *1646:C I *D sky130_fd_sc_hd__and3_2
*I *1730:C I *D sky130_fd_sc_hd__and3_2
*I *1752:C I *D sky130_fd_sc_hd__and3_2
*I *1731:B1 I *D sky130_fd_sc_hd__a21oi_2
*I *1645:X O *D sky130_fd_sc_hd__and2_4
*CAP
1 *1646:C 0
2 *1730:C 0
3 *1752:C 0
4 *1731:B1 0.000185809
5 *1645:X 0
6 *124:53 0.000431036
7 *124:34 0.000765279
8 *124:10 0.000485572
9 *124:4 0.000634006
10 *1731:B1 *1731:A1 0.000187129
11 *1731:B1 *209:6 5.67058e-05
12 *1731:B1 *447:43 2.18506e-05
13 *1731:B1 *449:62 0.000168754
14 *1731:B1 *465:10 1.47563e-05
15 *124:10 *229:20 8.93663e-05
16 *124:10 *234:22 9.84851e-05
17 *124:10 *447:37 0
18 *124:10 *447:43 0
19 *124:10 *449:62 7.79942e-05
20 *124:10 *455:10 0
21 *124:10 *466:38 0
22 *124:34 *234:22 0.000333383
23 *124:53 *1649:B 0
24 *124:53 *1735:A 0
25 *124:53 *234:22 0.000136738
26 *124:53 *447:69 0.000272383
27 *124:53 *447:80 4.21281e-05
28 *124:53 *465:61 0.000370857
29 *124:53 *480:12 0.000240416
30 *26:7 *1731:B1 0
31 *26:7 *124:10 0
*RES
1 *1645:X *124:4 23 
2 *124:4 *124:10 20.1164 
3 *124:10 *1731:B1 43.1371 
4 *124:10 *1752:C 38 
5 *124:4 *124:34 5.42714 
6 *124:34 *1730:C 23 
7 *124:34 *124:53 40.7921 
8 *124:53 *1646:C 23 
*END

*D_NET *125 0.00132839
*CONN
*I *1735:A I *D sky130_fd_sc_hd__and2_2
*I *1647:A I *D sky130_fd_sc_hd__inv_2
*I *1650:A I *D sky130_fd_sc_hd__or3b_4
*I *1646:X O *D sky130_fd_sc_hd__and3_2
*CAP
1 *1735:A 0.000206621
2 *1647:A 0
3 *1650:A 0
4 *1646:X 7.753e-05
5 *125:19 0.000281312
6 *125:12 9.43898e-05
7 *125:6 0.00024661
8 *1735:A *2086:A 5.50049e-05
9 *1735:A *501:10 2.61645e-05
10 *125:12 *1649:B 0
11 *125:12 *1651:A1 1.38978e-05
12 *125:12 *126:10 0.000130212
13 *125:12 *208:10 0.000167443
14 *125:12 *234:30 0
15 *125:19 *126:10 2.30292e-05
16 *125:19 *501:10 6.17437e-06
17 *124:53 *1735:A 0
*RES
1 *1646:X *125:6 24.0979 
2 *125:6 *125:12 32.9621 
3 *125:12 *1650:A 23 
4 *125:6 *125:19 1.57429 
5 *125:19 *1647:A 23 
6 *125:19 *1735:A 26.9771 
*END

*D_NET *126 0.00145134
*CONN
*I *1736:A I *D sky130_fd_sc_hd__xnor2_2
*I *1651:A1 I *D sky130_fd_sc_hd__a21bo_2
*I *1647:Y O *D sky130_fd_sc_hd__inv_2
*CAP
1 *1736:A 0.000253361
2 *1651:A1 0.00014479
3 *1647:Y 0.000109268
4 *126:10 0.000507418
5 *1651:A1 *1649:B 0
6 *1651:A1 *127:23 0
7 *1651:A1 *128:10 7.81176e-05
8 *1651:A1 *129:10 4.13358e-05
9 *1651:A1 *234:30 0
10 *1736:A *127:23 5.67058e-05
11 *1736:A *234:22 9.31996e-05
12 *1736:A *234:30 0
13 *126:10 *234:30 0
14 *125:12 *1651:A1 1.38978e-05
15 *125:12 *126:10 0.000130212
16 *125:19 *126:10 2.30292e-05
*RES
1 *1647:Y *126:10 40.3511 
2 *126:10 *1651:A1 41.1382 
3 *126:10 *1736:A 43.3961 
*END

*D_NET *127 0.00183376
*CONN
*I *1650:C_N I *D sky130_fd_sc_hd__or3b_4
*I *1651:A2 I *D sky130_fd_sc_hd__a21bo_2
*I *1648:X O *D sky130_fd_sc_hd__a22o_2
*CAP
1 *1650:C_N 0
2 *1651:A2 0
3 *1648:X 0.000231163
4 *127:23 0.000289811
5 *127:8 0.000520974
6 *127:8 *1649:A 0.000321555
7 *127:8 *1651:B1_N 1.41077e-05
8 *127:8 *215:6 2.07242e-05
9 *127:23 *1651:B1_N 0.000158696
10 *127:23 *129:10 7.56417e-05
11 *127:23 *130:10 2.93747e-05
12 *127:23 *215:6 2.52266e-05
13 *127:23 *234:22 5.50049e-05
14 *127:23 *234:30 3.47781e-05
15 *1651:A1 *127:23 0
16 *1736:A *127:23 5.67058e-05
*RES
1 *1648:X *127:8 28.4064 
2 *127:8 *1651:A2 23 
3 *127:8 *127:23 36.5871 
4 *127:23 *1650:C_N 23 
*END

*D_NET *128 0.000883681
*CONN
*I *1651:B1_N I *D sky130_fd_sc_hd__a21bo_2
*I *1650:B I *D sky130_fd_sc_hd__or3b_4
*I *1649:Y O *D sky130_fd_sc_hd__nand2_2
*CAP
1 *1651:B1_N 0.000101044
2 *1650:B 0
3 *1649:Y 0
4 *128:10 9.27655e-05
5 *128:4 0.00019381
6 *1651:B1_N *1649:A 0
7 *1651:B1_N *215:6 0.000193556
8 *128:10 *1649:B 5.15848e-05
9 *1651:A1 *128:10 7.81176e-05
10 *127:8 *1651:B1_N 1.41077e-05
11 *127:23 *1651:B1_N 0.000158696
*RES
1 *1649:Y *128:4 23 
2 *128:4 *128:10 32.2579 
3 *128:10 *1650:B 23 
4 *128:4 *1651:B1_N 26.3454 
*END

*D_NET *129 0.00393031
*CONN
*I *1742:B I *D sky130_fd_sc_hd__xor2_4
*I *1741:A I *D sky130_fd_sc_hd__or3_4
*I *1652:A I *D sky130_fd_sc_hd__and2_2
*I *1650:X O *D sky130_fd_sc_hd__or3b_4
*CAP
1 *1742:B 1.99615e-05
2 *1741:A 0.000155738
3 *1652:A 3.73824e-05
4 *1650:X 0.000244681
5 *129:23 0.0010835
6 *129:12 0.000945183
7 *129:10 0.000244681
8 *1741:A *1741:B 7.4416e-05
9 *1741:A *219:8 0.000165629
10 *1741:A *240:8 0.000191202
11 *1742:B *1764:B 1.0092e-05
12 *1742:B *219:8 6.43792e-05
13 *1742:B *240:8 5.19959e-05
14 *129:10 *130:10 0.000113235
15 *129:10 *234:22 5.67058e-05
16 *129:23 *1655:A 3.26241e-05
17 *129:23 *1863:A2 0.000179613
18 *129:23 *1863:B1 7.95762e-05
19 *129:23 *131:8 4.84155e-05
20 *129:23 *339:10 1.43261e-05
21 *1651:A1 *129:10 4.13358e-05
22 *127:23 *129:10 7.56417e-05
*RES
1 *1650:X *129:10 42.9921 
2 *129:10 *129:12 15 
3 *129:12 *1652:A 23.8493 
4 *129:12 *129:23 31.3436 
5 *129:23 *1741:A 42.1843 
6 *129:23 *1742:B 38.8493 
*END

*D_NET *130 0.000498664
*CONN
*I *1652:B I *D sky130_fd_sc_hd__and2_2
*I *1651:X O *D sky130_fd_sc_hd__a21bo_2
*CAP
1 *1652:B 0
2 *1651:X 0.000178027
3 *130:10 0.000178027
4 *127:23 *130:10 2.93747e-05
5 *129:10 *130:10 0.000113235
*RES
1 *1651:X *130:10 40.8793 
2 *130:10 *1652:B 38 
*END

*D_NET *131 0.00165181
*CONN
*I *1655:A I *D sky130_fd_sc_hd__nand2_2
*I *1656:A I *D sky130_fd_sc_hd__or2_2
*I *1652:X O *D sky130_fd_sc_hd__and2_2
*CAP
1 *1655:A 2.22623e-05
2 *1656:A 0
3 *1652:X 0.00010304
4 *131:14 0.000279737
5 *131:8 0.000405039
6 *131:14 *1657:A 7.01812e-05
7 *131:14 *132:21 0.000564024
8 *131:14 *134:8 5.19819e-05
9 *131:14 *349:10 6.68282e-05
10 *131:14 *352:11 7.6774e-06
11 *129:23 *1655:A 3.26241e-05
12 *129:23 *131:8 4.84155e-05
*RES
1 *1652:X *131:8 25.0714 
2 *131:8 *131:14 37.8921 
3 *131:14 *1656:A 23 
4 *131:8 *1655:A 23.6214 
*END

*D_NET *132 0.00279244
*CONN
*I *1655:B I *D sky130_fd_sc_hd__nand2_2
*I *1656:B I *D sky130_fd_sc_hd__or2_2
*I *1653:X O *D sky130_fd_sc_hd__and4_2
*CAP
1 *1655:B 0
2 *1656:B 2.18824e-05
3 *1653:X 0.000612095
4 *132:21 0.000329921
5 *132:6 0.000963898
6 *132:6 *1666:A1 1.61385e-05
7 *132:6 *1666:A2 1.66122e-05
8 *132:6 *1666:B1 2.50118e-05
9 *132:6 *455:60 0.000192342
10 *132:21 *352:11 5.0518e-05
11 *131:14 *132:21 0.000564024
*RES
1 *1653:X *132:6 31.7207 
2 *132:6 *1656:B 23.4971 
3 *132:6 *132:21 38.1614 
4 *132:21 *1655:B 23 
*END

*D_NET *133 0.00132422
*CONN
*I *1673:A1 I *D sky130_fd_sc_hd__a21oi_2
*I *1669:A I *D sky130_fd_sc_hd__and3_2
*I *1654:Y O *D sky130_fd_sc_hd__nand4_2
*CAP
1 *1673:A1 0
2 *1669:A 8.23292e-05
3 *1654:Y 0.000356253
4 *133:14 8.23292e-05
5 *133:12 0.000356253
6 *1669:A *1669:B 2.90978e-05
7 *1669:A *1669:C 5.67058e-05
8 *1669:A *147:14 4.5051e-05
9 *1669:A *158:10 0.000226306
10 *133:12 *1654:A 4.07902e-05
11 *133:12 *145:8 0
12 *133:12 *352:11 4.90994e-05
*RES
1 *1654:Y *133:12 43.7586 
2 *133:12 *133:14 15 
3 *133:14 *1669:A 26.0243 
4 *133:14 *1673:A1 23 
*END

*D_NET *134 0.00365723
*CONN
*I *1657:A I *D sky130_fd_sc_hd__nand2_2
*I *1751:A1 I *D sky130_fd_sc_hd__o21ai_4
*I *1743:B I *D sky130_fd_sc_hd__xnor2_2
*I *1655:Y O *D sky130_fd_sc_hd__nand2_2
*CAP
1 *1657:A 0.000409784
2 *1751:A1 0
3 *1743:B 0
4 *1655:Y 0.000110068
5 *134:20 0.000342958
6 *134:12 0.000733828
7 *134:8 0.000910722
8 *1657:A *1657:B 5.50106e-05
9 *1657:A *135:8 0.000171906
10 *1657:A *337:16 8.91405e-05
11 *1657:A *348:10 7.6774e-06
12 *1657:A *349:10 0.000129647
13 *1657:A *352:11 0
14 *134:8 *337:16 1.7403e-05
15 *134:8 *349:10 1.13812e-05
16 *134:12 *1873:A2 0.000223288
17 *134:12 *228:8 0.000138859
18 *134:12 *348:10 7.79323e-05
19 *134:20 *339:10 0.00010546
20 *131:14 *1657:A 7.01812e-05
21 *131:14 *134:8 5.19819e-05
*RES
1 *1655:Y *134:8 40.61 
2 *134:8 *134:12 23.7207 
3 *134:12 *134:20 36.4421 
4 *134:20 *1743:B 23 
5 *134:12 *1751:A1 23 
6 *134:8 *1657:A 48.3157 
*END

*D_NET *135 0.000552182
*CONN
*I *1657:B I *D sky130_fd_sc_hd__nand2_2
*I *1656:X O *D sky130_fd_sc_hd__or2_2
*CAP
1 *1657:B 6.22736e-05
2 *1656:X 0.000100359
3 *135:8 0.000162633
4 *135:8 *352:11 0
5 *1657:A *1657:B 5.50106e-05
6 *1657:A *135:8 0.000171906
*RES
1 *1656:X *135:8 40.61 
2 *135:8 *1657:B 39.0979 
*END

*D_NET *136 0.00259057
*CONN
*I *1658:C I *D sky130_fd_sc_hd__or3_4
*I *1660:B1 I *D sky130_fd_sc_hd__o21ai_2
*I *1657:Y O *D sky130_fd_sc_hd__nand2_2
*CAP
1 *1658:C 0.000160486
2 *1660:B1 4.89696e-05
3 *1657:Y 0.000556198
4 *136:8 0.000765653
5 *1658:C *1748:B 0
6 *136:8 *1671:A1 2.22079e-05
7 *136:8 *137:10 4.46028e-05
8 *136:8 *148:23 7.90568e-05
9 *136:8 *150:10 0
10 *136:8 *152:10 0.000197479
11 *1658:B *1658:C 7.56417e-05
12 *1660:A1 *1660:B1 5.3304e-05
13 *1660:A2 *1660:B1 0.000137651
14 *122:6 *1660:B1 9.67842e-05
15 *122:16 *1658:C 0.000154428
16 *122:16 *136:8 1.58805e-05
17 *123:10 *1658:C 1.88713e-05
18 *123:10 *136:8 0.000163361
*RES
1 *1657:Y *136:8 49.0614 
2 *136:8 *1660:B1 39.5743 
3 *136:8 *1658:C 41.3764 
*END

*D_NET *137 0.00313779
*CONN
*I *1659:A I *D sky130_fd_sc_hd__inv_2
*I *1670:B1 I *D sky130_fd_sc_hd__o211a_2
*I *1671:A1 I *D sky130_fd_sc_hd__a211o_2
*I *1658:X O *D sky130_fd_sc_hd__or3_4
*CAP
1 *1659:A 0.000309677
2 *1670:B1 0
3 *1671:A1 2.53041e-05
4 *1658:X 0.000268983
5 *137:29 0.000247545
6 *137:10 0.000478654
7 *137:6 0.000784465
8 *1659:A *224:14 5.50049e-05
9 *1659:A *226:6 7.27182e-05
10 *1671:A1 *139:8 6.16439e-05
11 *137:10 *139:8 0.000114092
12 *137:29 *1670:A1 0.000311549
13 *137:29 *241:8 0
14 *122:16 *1659:A 0
15 *122:16 *137:6 0.000180218
16 *122:16 *137:10 0.000161121
17 *122:39 *137:10 0
18 *136:8 *1671:A1 2.22079e-05
19 *136:8 *137:10 4.46028e-05
*RES
1 *1658:X *137:6 26.48 
2 *137:6 *137:10 19.3707 
3 *137:10 *1671:A1 38.8493 
4 *137:10 *137:29 49.3293 
5 *137:29 *1670:B1 23 
6 *137:6 *1659:A 28.9036 
*END

*D_NET *138 0.00101157
*CONN
*I *1746:A2 I *D sky130_fd_sc_hd__o211a_2
*I *1747:C1 I *D sky130_fd_sc_hd__a211o_4
*I *1659:Y O *D sky130_fd_sc_hd__inv_2
*CAP
1 *1746:A2 7.40528e-05
2 *1747:C1 3.38811e-05
3 *1659:Y 9.80571e-05
4 *138:8 0.000205991
5 *1746:A2 *1747:A2 0.000191157
6 *1747:C1 *1747:A2 5.50049e-05
7 *138:8 *1747:A2 3.47781e-05
8 *138:8 *241:8 5.87192e-05
9 *1746:A1 *1746:A2 0.000178773
10 *1746:A1 *138:8 1.01436e-05
11 *122:39 *138:8 7.10099e-05
*RES
1 *1659:Y *138:8 40.2579 
2 *138:8 *1747:C1 38.6214 
3 *138:8 *1746:A2 40.61 
*END

*D_NET *139 0.000815818
*CONN
*I *1670:C1 I *D sky130_fd_sc_hd__o211a_2
*I *1671:A2 I *D sky130_fd_sc_hd__a211o_2
*I *1660:Y O *D sky130_fd_sc_hd__o21ai_2
*CAP
1 *1670:C1 2.63783e-05
2 *1671:A2 0
3 *1660:Y 0.000107381
4 *139:10 2.63783e-05
5 *139:8 0.000107381
6 *1670:C1 *1670:A1 0.000185434
7 *1670:C1 *1670:A2 0.000187129
8 *1671:A1 *139:8 6.16439e-05
9 *137:10 *139:8 0.000114092
*RES
1 *1660:Y *139:8 40.2579 
2 *139:8 *139:10 15 
3 *139:10 *1671:A2 23 
4 *139:10 *1670:C1 25.0507 
*END

*D_NET *140 0.000564199
*CONN
*I *1662:B I *D sky130_fd_sc_hd__or2_2
*I *1661:Y O *D sky130_fd_sc_hd__nor2_2
*CAP
1 *1662:B 9.01197e-05
2 *1661:Y 9.01197e-05
3 *1662:B *155:8 5.31757e-05
4 *1628:B *1662:B 0.000143655
5 *1662:A *1662:B 8.6949e-05
6 *107:12 *1662:B 0.00010018
*RES
1 *1661:Y *1662:B 49.48 
*END

*D_NET *141 0.00391769
*CONN
*I *1665:A I *D sky130_fd_sc_hd__nor2_2
*I *1667:A I *D sky130_fd_sc_hd__and2_2
*I *1662:X O *D sky130_fd_sc_hd__or2_2
*CAP
1 *1665:A 0
2 *1667:A 0
3 *1662:X 0.000968823
4 *141:20 0.000143785
5 *141:14 0.00111261
6 *141:14 *1639:A 9.47033e-05
7 *141:14 *1639:B 1.21972e-05
8 *141:14 *1665:B 0
9 *141:14 *2000:CLK 5.50049e-05
10 *141:14 *143:6 0.000141954
11 *141:14 *155:8 0.000179883
12 *141:14 *450:38 0.000268074
13 *141:14 *450:51 4.04303e-05
14 *141:14 *453:8 0.000196027
15 *141:14 *467:10 0.000190191
16 *141:20 *143:12 9.63815e-05
17 *2000:D *141:14 1.64354e-05
18 *118:8 *141:14 0.000198545
19 *118:19 *141:14 0.000202649
*RES
1 *1662:X *141:14 47.1736 
2 *141:14 *141:20 32.9621 
3 *141:20 *1667:A 23 
4 *141:14 *1665:A 23 
*END

*D_NET *142 0.000418312
*CONN
*I *1664:B I *D sky130_fd_sc_hd__or2_2
*I *1663:Y O *D sky130_fd_sc_hd__a22oi_2
*CAP
1 *1664:B 0
2 *1663:Y 0.00010627
3 *142:8 0.00010627
4 *142:8 *450:51 0.000166532
5 *142:8 *450:64 3.92407e-05
*RES
1 *1663:Y *142:8 40.61 
2 *142:8 *1664:B 38 
*END

*D_NET *143 0.000945417
*CONN
*I *1665:B I *D sky130_fd_sc_hd__nor2_2
*I *1667:B I *D sky130_fd_sc_hd__and2_2
*I *1664:X O *D sky130_fd_sc_hd__or2_2
*CAP
1 *1665:B 4.04036e-05
2 *1667:B 0
3 *1664:X 6.32041e-05
4 *143:12 0.000136295
5 *143:6 0.000239902
6 *1665:B *144:10 1.32314e-05
7 *1665:B *467:10 1.56762e-05
8 *143:6 *467:10 0.000123934
9 *143:12 *1668:A 0
10 *143:12 *144:10 0
11 *118:19 *1665:B 2.93845e-05
12 *118:19 *143:6 4.5051e-05
13 *141:14 *1665:B 0
14 *141:14 *143:6 0.000141954
15 *141:20 *143:12 9.63815e-05
*RES
1 *1664:X *143:6 25.5271 
2 *143:6 *143:12 32.9621 
3 *143:12 *1667:B 23 
4 *143:6 *1665:B 24.1186 
*END

*D_NET *144 0.00331789
*CONN
*I *1670:A1 I *D sky130_fd_sc_hd__o211a_2
*I *1671:B1 I *D sky130_fd_sc_hd__a211o_2
*I *1668:A I *D sky130_fd_sc_hd__nor2_2
*I *1665:Y O *D sky130_fd_sc_hd__nor2_2
*CAP
1 *1670:A1 0.000220005
2 *1671:B1 2.0995e-05
3 *1668:A 4.33608e-05
4 *1665:Y 0.000176769
5 *144:25 0.0007251
6 *144:10 0.000704229
7 *1668:A *352:11 0
8 *1670:A1 *1670:A2 0.000154431
9 *1671:B1 *1671:C1 1.14154e-05
10 *144:10 *352:11 0
11 *144:10 *467:10 0.000185428
12 *144:25 *1668:B 4.06849e-05
13 *144:25 *1670:A2 1.41077e-05
14 *144:25 *147:10 3.71251e-05
15 *144:25 *148:23 3.3577e-05
16 *1644:A2 *144:25 4.95081e-05
17 *1644:B1 *144:25 0.000139352
18 *1665:B *144:10 1.32314e-05
19 *1670:C1 *1670:A1 0.000185434
20 *118:19 *144:10 6.7063e-05
21 *123:10 *144:25 0.000184527
22 *137:29 *1670:A1 0.000311549
23 *143:12 *1668:A 0
24 *143:12 *144:10 0
*RES
1 *1665:Y *144:10 41.9564 
2 *144:10 *1668:A 38.8493 
3 *144:10 *144:25 24.6943 
4 *144:25 *1671:B1 23.4971 
5 *144:25 *1670:A1 30.887 
*END

*D_NET *145 0.00180844
*CONN
*I *1669:B I *D sky130_fd_sc_hd__and3_2
*I *1673:A2 I *D sky130_fd_sc_hd__a21oi_2
*I *1666:X O *D sky130_fd_sc_hd__a22o_2
*CAP
1 *1669:B 0.000353901
2 *1673:A2 0
3 *1666:X 0.000328923
4 *145:12 0.000414465
5 *145:8 0.000389486
6 *1669:B *1669:C 0
7 *1669:B *147:14 2.02872e-05
8 *1669:B *152:10 0.000185434
9 *1669:B *158:10 7.9567e-06
10 *145:8 *1678:A 0
11 *145:8 *352:11 0
12 *145:8 *447:119 0
13 *145:12 *158:10 7.88926e-05
14 *1669:A *1669:B 2.90978e-05
15 *133:12 *145:8 0
*RES
1 *1666:X *145:8 42.7229 
2 *145:8 *145:12 16.5743 
3 *145:12 *1673:A2 23 
4 *145:12 *1669:B 28.6343 
*END

*D_NET *146 0.00035027
*CONN
*I *1668:B I *D sky130_fd_sc_hd__nor2_2
*I *1667:X O *D sky130_fd_sc_hd__and2_2
*CAP
1 *1668:B 0.000154793
2 *1667:X 0.000154793
3 *144:25 *1668:B 4.06849e-05
*RES
1 *1667:X *1668:B 49.0243 
*END

*D_NET *147 0.00144739
*CONN
*I *1673:B1 I *D sky130_fd_sc_hd__a21oi_2
*I *1669:C I *D sky130_fd_sc_hd__and3_2
*I *1668:Y O *D sky130_fd_sc_hd__nor2_2
*CAP
1 *1673:B1 0
2 *1669:C 6.26479e-05
3 *1668:Y 0.000260216
4 *147:14 9.86241e-05
5 *147:10 0.000296192
6 *1669:C *152:10 7.42621e-05
7 *1669:C *158:10 6.09235e-05
8 *147:10 *352:11 0.000380342
9 *147:14 *152:10 5.50106e-05
10 *1669:A *1669:C 5.67058e-05
11 *1669:A *147:14 4.5051e-05
12 *1669:B *1669:C 0
13 *1669:B *147:14 2.02872e-05
14 *144:25 *147:10 3.71251e-05
*RES
1 *1668:Y *147:10 44.1729 
2 *147:10 *147:14 16.0979 
3 *147:14 *1669:C 25.5686 
4 *147:14 *1673:B1 23 
*END

*D_NET *148 0.0020663
*CONN
*I *1670:A2 I *D sky130_fd_sc_hd__o211a_2
*I *1671:C1 I *D sky130_fd_sc_hd__a211o_2
*I *1674:A I *D sky130_fd_sc_hd__nor2_2
*I *1669:X O *D sky130_fd_sc_hd__and3_2
*CAP
1 *1670:A2 0.000221831
2 *1671:C1 2.0995e-05
3 *1674:A 0
4 *1669:X 0.000180521
5 *148:23 0.000401142
6 *148:10 0.000338836
7 *1670:A2 *150:10 9.84794e-05
8 *148:10 *152:10 0.000313329
9 *148:10 *352:11 0
10 *148:23 *152:10 1.14452e-05
11 *148:23 *352:11 0
12 *1670:A1 *1670:A2 0.000154431
13 *1670:C1 *1670:A2 0.000187129
14 *1671:B1 *1671:C1 1.14154e-05
15 *136:8 *148:23 7.90568e-05
16 *144:25 *1670:A2 1.41077e-05
17 *144:25 *148:23 3.3577e-05
*RES
1 *1669:X *148:10 41.8321 
2 *148:10 *1674:A 38 
3 *148:10 *148:23 18.3557 
4 *148:23 *1671:C1 23.4971 
5 *148:23 *1670:A2 28.8829 
*END

*D_NET *149 0.00105022
*CONN
*I *1749:B1 I *D sky130_fd_sc_hd__a21o_2
*I *1672:A_N I *D sky130_fd_sc_hd__nand2b_2
*I *1670:X O *D sky130_fd_sc_hd__o211a_2
*CAP
1 *1749:B1 9.57793e-05
2 *1672:A_N 1.13421e-05
3 *1670:X 0.00016618
4 *149:12 0.000107121
5 *149:10 0.00016618
6 *1672:A_N *1749:A1 5.50049e-05
7 *1672:A_N *151:8 2.4754e-05
8 *1749:B1 *1681:B 0.000144214
9 *1749:B1 *1749:A1 1.56665e-05
10 *1749:B1 *151:8 0.000179311
11 *149:10 *150:10 0
12 *149:10 *159:8 1.01436e-05
13 *149:10 *241:8 7.45278e-05
*RES
1 *1670:X *149:10 40.8793 
2 *149:10 *149:12 15 
3 *149:12 *1672:A_N 23.6214 
4 *149:12 *1749:B1 26.045 
*END

*D_NET *150 0.00121324
*CONN
*I *1749:A1 I *D sky130_fd_sc_hd__a21o_2
*I *1672:B I *D sky130_fd_sc_hd__nand2b_2
*I *1671:X O *D sky130_fd_sc_hd__a211o_2
*CAP
1 *1749:A1 0.000225899
2 *1672:B 0
3 *1671:X 0.000212477
4 *150:12 0.000225899
5 *150:10 0.000212477
6 *1749:A1 *1681:B 5.3304e-05
7 *1749:A1 *151:8 1.03955e-05
8 *1749:A1 *153:10 0.000103637
9 *1670:A2 *150:10 9.84794e-05
10 *1672:A_N *1749:A1 5.50049e-05
11 *1749:B1 *1749:A1 1.56665e-05
12 *136:8 *150:10 0
13 *149:10 *150:10 0
*RES
1 *1671:X *150:10 41.0036 
2 *150:10 *150:12 15 
3 *150:12 *1672:B 23 
4 *150:12 *1749:A1 27.4536 
*END

*D_NET *151 0.00118176
*CONN
*I *1681:A I *D sky130_fd_sc_hd__xnor2_2
*I *1672:Y O *D sky130_fd_sc_hd__nand2b_2
*CAP
1 *1681:A 0
2 *1672:Y 0.000396729
3 *151:8 0.000396729
4 *151:8 *1681:B 0.000118832
5 *151:8 *153:10 5.50049e-05
6 *1672:A_N *151:8 2.4754e-05
7 *1749:A1 *151:8 1.03955e-05
8 *1749:B1 *151:8 0.000179311
*RES
1 *1672:Y *151:8 30.6643 
2 *151:8 *1681:A 23 
*END

*D_NET *152 0.00131045
*CONN
*I *1674:B I *D sky130_fd_sc_hd__nor2_2
*I *1673:Y O *D sky130_fd_sc_hd__a21oi_2
*CAP
1 *1674:B 0
2 *1673:Y 0.000185294
3 *152:10 0.000185294
4 *152:10 *158:10 0.0001029
5 *1669:B *152:10 0.000185434
6 *1669:C *152:10 7.42621e-05
7 *136:8 *152:10 0.000197479
8 *147:14 *152:10 5.50106e-05
9 *148:10 *152:10 0.000313329
10 *148:23 *152:10 1.14452e-05
*RES
1 *1673:Y *152:10 45.5193 
2 *152:10 *1674:B 38 
*END

*D_NET *153 0.00159305
*CONN
*I *1680:B I *D sky130_fd_sc_hd__and2b_2
*I *1936:A I *D sky130_fd_sc_hd__xnor2_2
*I *1674:Y O *D sky130_fd_sc_hd__nor2_2
*CAP
1 *1680:B 0
2 *1936:A 0.000211968
3 *1674:Y 0.000381135
4 *153:14 0.00024191
5 *153:10 0.000411078
6 *1936:A *1936:B 0.000128287
7 *153:10 *159:8 4.23714e-05
8 *153:10 *241:8 0
9 *153:14 *1936:B 1.76557e-05
10 *1749:A1 *153:10 0.000103637
11 *151:8 *153:10 5.50049e-05
*RES
1 *1674:Y *153:10 45.6436 
2 *153:10 *153:14 15.6214 
3 *153:14 *1936:A 27.4743 
4 *153:14 *1680:B 23 
*END

*D_NET *154 0.00168538
*CONN
*I *1676:B I *D sky130_fd_sc_hd__nor2_2
*I *1675:Y O *D sky130_fd_sc_hd__a22oi_2
*CAP
1 *1676:B 0.000232942
2 *1675:Y 0.000113665
3 *154:8 0.000346607
4 *1676:B *155:8 1.14154e-05
5 *1676:B *497:81 0.00044481
6 *154:8 *418:47 3.31127e-05
7 *154:8 *442:32 0
8 *154:8 *454:73 9.53602e-05
9 *1628:A *1676:B 0
10 *89:12 *1676:B 9.24795e-06
11 *102:6 *1676:B 0.000352415
12 *106:29 *1676:B 4.58055e-05
*RES
1 *1675:Y *154:8 40.61 
2 *154:8 *1676:B 45.1879 
*END

*D_NET *155 0.00461949
*CONN
*I *1677:B I *D sky130_fd_sc_hd__xnor2_2
*I *1679:A3 I *D sky130_fd_sc_hd__a31oi_2
*I *1676:Y O *D sky130_fd_sc_hd__nor2_2
*CAP
1 *1677:B 0
2 *1679:A3 0.000244308
3 *1676:Y 0.00137465
4 *155:12 0.000473629
5 *155:8 0.00160397
6 *1679:A3 *450:19 0
7 *155:8 *2000:CLK 1.94693e-05
8 *155:8 *453:8 0.000359326
9 *155:12 *450:19 0
10 *155:12 *450:38 0
11 *155:12 *451:10 0
12 *1628:A *155:8 0.00010655
13 *1628:B *155:8 3.53115e-05
14 *1662:A *155:8 1.02949e-05
15 *1662:B *155:8 5.31757e-05
16 *1676:B *155:8 1.14154e-05
17 *2000:D *155:8 4.9054e-06
18 *79:8 *1679:A3 0
19 *79:8 *155:12 0
20 *106:29 *155:8 7.97636e-05
21 *117:8 *1679:A3 4.21594e-06
22 *117:8 *155:12 5.86165e-05
23 *141:14 *155:8 0.000179883
*RES
1 *1676:Y *155:8 44.605 
2 *155:8 *155:12 19.7229 
3 *155:12 *1679:A3 42.5364 
4 *155:12 *1677:B 38 
*END

*D_NET *156 0.00132091
*CONN
*I *1678:C I *D sky130_fd_sc_hd__and3_2
*I *1934:B1 I *D sky130_fd_sc_hd__a21oi_2
*I *1677:Y O *D sky130_fd_sc_hd__xnor2_2
*CAP
1 *1678:C 0.000105847
2 *1934:B1 6.6261e-05
3 *1677:Y 0.000106608
4 *156:8 0.000278716
5 *1678:C *1679:B1 5.50049e-05
6 *1678:C *158:10 0.000181925
7 *1678:C *446:62 1.39431e-05
8 *1934:B1 *157:17 8.16356e-05
9 *1934:B1 *383:10 0.000168754
10 *156:8 *157:17 1.83667e-05
11 *156:8 *383:10 0.000243847
12 *156:8 *446:62 0
*RES
1 *1677:Y *156:8 41.3143 
2 *156:8 *1934:B1 40.2579 
3 *156:8 *1678:C 40.5271 
*END

*D_NET *157 0.000504567
*CONN
*I *1935:A I *D sky130_fd_sc_hd__nor2_2
*I *1679:B1 I *D sky130_fd_sc_hd__a31oi_2
*I *1678:X O *D sky130_fd_sc_hd__and3_2
*CAP
1 *1935:A 0
2 *1679:B1 2.79296e-05
3 *1678:X 0
4 *157:17 0.000102167
5 *157:4 0.000130097
6 *157:17 *446:62 8.93663e-05
7 *1678:C *1679:B1 5.50049e-05
8 *1934:B1 *157:17 8.16356e-05
9 *156:8 *157:17 1.83667e-05
*RES
1 *1678:X *157:4 23 
2 *157:4 *1679:B1 23.6214 
3 *157:4 *157:17 32.61 
4 *157:17 *1935:A 23 
*END

*D_NET *158 0.00421678
*CONN
*I *1936:B I *D sky130_fd_sc_hd__xnor2_2
*I *1680:A_N I *D sky130_fd_sc_hd__and2b_2
*I *1679:Y O *D sky130_fd_sc_hd__a31oi_2
*CAP
1 *1936:B 0.000228648
2 *1680:A_N 0
3 *1679:Y 0.00144982
4 *158:10 0.00167847
5 *158:10 *1678:A 5.50049e-05
6 *1669:A *158:10 0.000226306
7 *1669:B *158:10 7.9567e-06
8 *1669:C *158:10 6.09235e-05
9 *1678:C *158:10 0.000181925
10 *1936:A *1936:B 0.000128287
11 *145:12 *158:10 7.88926e-05
12 *152:10 *158:10 0.0001029
13 *153:14 *1936:B 1.76557e-05
*RES
1 *1679:Y *158:10 45.7029 
2 *158:10 *1680:A_N 23 
3 *158:10 *1936:B 27.4536 
*END

*D_NET *159 0.0011241
*CONN
*I *1681:B I *D sky130_fd_sc_hd__xnor2_2
*I *1749:A2 I *D sky130_fd_sc_hd__a21o_2
*I *1680:X O *D sky130_fd_sc_hd__and2b_2
*CAP
1 *1681:B 0.000198883
2 *1749:A2 0
3 *1680:X 9.70604e-05
4 *159:10 0.000198883
5 *159:8 9.70604e-05
6 *159:8 *241:8 0.000163352
7 *1749:A1 *1681:B 5.3304e-05
8 *1749:B1 *1681:B 0.000144214
9 *149:10 *159:8 1.01436e-05
10 *151:8 *1681:B 0.000118832
11 *153:10 *159:8 4.23714e-05
*RES
1 *1680:X *159:8 40.2579 
2 *159:8 *159:10 15 
3 *159:10 *1749:A2 23 
4 *159:10 *1681:B 28.2407 
*END

*D_NET *160 0.00252079
*CONN
*I *1765:A1 I *D sky130_fd_sc_hd__a21bo_2
*I *1710:A I *D sky130_fd_sc_hd__and3_4
*I *1711:B1 I *D sky130_fd_sc_hd__a21oi_2
*I *1682:Y O *D sky130_fd_sc_hd__o21bai_2
*CAP
1 *1765:A1 0.00021557
2 *1710:A 1.49804e-05
3 *1711:B1 0
4 *1682:Y 0.000256894
5 *160:12 1.49804e-05
6 *160:10 0.000654257
7 *160:8 0.00069558
8 *1710:A *1710:B 5.50106e-05
9 *1710:A *1710:C 5.50106e-05
10 *1765:A1 *1709:B1 0
11 *1765:A1 *185:8 0
12 *1765:A1 *186:23 0
13 *1765:A1 *187:19 0.000197479
14 *160:10 *186:23 0
15 *100:8 *160:10 0
16 *108:16 *160:8 0.000361027
*RES
1 *1682:Y *160:8 43.3857 
2 *160:8 *160:10 7.89214 
3 *160:10 *160:12 15 
4 *160:12 *1711:B1 23 
5 *160:12 *1710:A 23.6214 
6 *160:10 *1765:A1 42.4121 
*END

*D_NET *161 0.00131896
*CONN
*I *1770:A1 I *D sky130_fd_sc_hd__a21oi_2
*I *1683:Y O *D sky130_fd_sc_hd__nand2_2
*CAP
1 *1770:A1 0
2 *1683:Y 0.000277712
3 *161:10 0.000277712
4 *161:10 *244:10 0
5 *161:10 *248:8 8.15957e-05
6 *161:10 *249:10 0.000140949
7 *161:10 *439:81 7.91493e-05
8 *161:10 *441:46 5.41385e-05
9 *161:10 *495:20 0.000144168
10 *161:10 *495:22 8.51225e-05
11 *161:10 *495:26 8.16253e-05
12 *161:10 *497:6 9.67842e-05
*RES
1 *1683:Y *161:10 46.99 
2 *161:10 *1770:A1 38 
*END

*D_NET *162 0.00287171
*CONN
*I *1767:A I *D sky130_fd_sc_hd__nand2_2
*I *1687:C I *D sky130_fd_sc_hd__nand4_2
*I *1686:B1 I *D sky130_fd_sc_hd__a22o_4
*I *1684:Y O *D sky130_fd_sc_hd__nand4_4
*CAP
1 *1767:A 0.000273537
2 *1687:C 0.000361403
3 *1686:B1 0
4 *1684:Y 9.44119e-05
5 *162:17 0.000749506
6 *162:8 0.000208977
7 *1687:C *1689:A2 0.000182832
8 *1687:C *474:16 1.02561e-05
9 *1767:A *2093:A 0.000179702
10 *1767:A *167:10 0.000194327
11 *1767:A *244:8 9.58714e-05
12 *1767:A *441:46 5.62433e-06
13 *1767:A *474:16 1.07192e-05
14 *1767:A *495:26 0.000139647
15 *162:8 *441:46 0.000113614
16 *162:8 *474:16 7.20622e-05
17 *162:17 *441:46 0.000113265
18 *162:17 *474:16 6.59536e-05
*RES
1 *1684:Y *162:8 40.9621 
2 *162:8 *1686:B1 38 
3 *162:8 *162:17 3.13821 
4 *162:17 *1687:C 44.2246 
5 *162:17 *1767:A 44.8254 
*END

*D_NET *163 0.00164335
*CONN
*I *1687:D I *D sky130_fd_sc_hd__nand4_2
*I *1686:B2 I *D sky130_fd_sc_hd__a22o_4
*I *1685:X O *D sky130_fd_sc_hd__a22o_4
*CAP
1 *1687:D 0.000123715
2 *1686:B2 0.000240806
3 *1685:X 0.000212817
4 *163:8 0.000577338
5 *1686:B2 *1686:A1 7.73389e-05
6 *1686:B2 *1686:A2 5.50106e-05
7 *1686:B2 *485:20 0.000148698
8 *1687:D *440:75 7.66188e-05
9 *163:8 *440:66 5.86165e-05
10 *163:8 *440:75 7.23925e-05
*RES
1 *1685:X *163:8 43.075 
2 *163:8 *1686:B2 43.3857 
3 *163:8 *1687:D 40.9621 
*END

*D_NET *164 0.000774198
*CONN
*I *1688:B I *D sky130_fd_sc_hd__nand3_2
*I *1689:A1 I *D sky130_fd_sc_hd__a21o_4
*I *1686:X O *D sky130_fd_sc_hd__a22o_4
*CAP
1 *1688:B 0.000127573
2 *1689:A1 0
3 *1686:X 0
4 *164:12 0.000114482
5 *164:4 0.000242055
6 *1688:B *485:20 5.31757e-05
7 *164:12 *165:37 8.16459e-05
8 *164:12 *439:49 1.01436e-05
9 *164:12 *439:66 0.000111852
10 *164:12 *439:81 1.59312e-05
11 *164:12 *485:20 1.73399e-05
*RES
1 *1686:X *164:4 23 
2 *164:4 *164:12 32.8793 
3 *164:12 *1689:A1 23 
4 *164:4 *1688:B 25.5479 
*END

*D_NET *165 0.00240194
*CONN
*I *1688:C I *D sky130_fd_sc_hd__nand3_2
*I *1689:A2 I *D sky130_fd_sc_hd__a21o_4
*I *1767:B I *D sky130_fd_sc_hd__nand2_2
*I *1687:Y O *D sky130_fd_sc_hd__nand4_2
*CAP
1 *1688:C 0
2 *1689:A2 0.000343681
3 *1767:B 0
4 *1687:Y 0
5 *165:37 0.000121158
6 *165:10 0.000228959
7 *165:4 0.000451482
8 *1689:A2 *1687:A 0.000104558
9 *1689:A2 *167:10 5.50106e-05
10 *165:10 *474:16 0.000389195
11 *165:10 *485:12 0.000224669
12 *165:10 *485:14 6.07611e-06
13 *165:37 *166:8 9.28842e-05
14 *165:37 *439:49 9.20311e-06
15 *1687:C *1689:A2 0.000182832
16 *1689:B1 *1689:A2 5.55784e-05
17 *1689:B1 *165:37 5.50049e-05
18 *164:12 *165:37 8.16459e-05
*RES
1 *1687:Y *165:4 23 
2 *165:4 *165:10 35.7793 
3 *165:10 *1767:B 23 
4 *165:4 *1689:A2 28.4271 
5 *1689:A2 *165:37 41.2314 
6 *165:37 *1688:C 38 
*END

*D_NET *166 0.00276824
*CONN
*I *1776:A I *D sky130_fd_sc_hd__and2_2
*I *1691:B1 I *D sky130_fd_sc_hd__a22o_4
*I *1690:C I *D sky130_fd_sc_hd__nand4_2
*I *1688:Y O *D sky130_fd_sc_hd__nand3_2
*CAP
1 *1776:A 0.000384595
2 *1691:B1 0.000197601
3 *1690:C 0
4 *1688:Y 0.000345222
5 *166:10 0.000197601
6 *166:8 0.000729816
7 *1691:B1 *1690:B 0.000483741
8 *1691:B1 *1691:A1 0.000101768
9 *1691:B1 *1691:A2 1.32314e-05
10 *1691:B1 *169:8 0.000103637
11 *1776:A *1692:B 0
12 *1776:A *1776:B 0
13 *1776:A *168:21 0
14 *1776:A *244:10 0
15 *1776:A *439:81 0
16 *1776:A *497:6 5.47927e-05
17 *1776:A *509:10 5.72749e-05
18 *166:8 *1692:B 0
19 *166:8 *439:49 0
20 *166:8 *439:81 0
21 *166:8 *509:10 6.07611e-06
22 *1689:B1 *166:8 0
23 *93:19 *166:8 0
24 *165:37 *166:8 9.28842e-05
*RES
1 *1688:Y *166:8 44.1314 
2 *166:8 *166:10 15 
3 *166:10 *1690:C 23 
4 *166:10 *1691:B1 29.38 
5 *166:8 *1776:A 45.0014 
*END

*D_NET *167 0.00165165
*CONN
*I *2093:A I *D sky130_fd_sc_hd__buf_2
*I *1691:B2 I *D sky130_fd_sc_hd__a22o_4
*I *1689:X O *D sky130_fd_sc_hd__a21o_4
*CAP
1 *2093:A 0.00022787
2 *1691:B2 0
3 *1689:X 0.000100588
4 *167:10 0.000328458
5 *2093:A *244:8 0.000180218
6 *2093:A *441:46 0.000191148
7 *167:10 *441:46 0.000194327
8 *1689:A2 *167:10 5.50106e-05
9 *1767:A *2093:A 0.000179702
10 *1767:A *167:10 0.000194327
*RES
1 *1689:X *167:10 41.2314 
2 *167:10 *1691:B2 38 
3 *167:10 *2093:A 43.6136 
*END

*D_NET *168 0.00170011
*CONN
*I *1776:B I *D sky130_fd_sc_hd__and2_2
*I *1693:A2 I *D sky130_fd_sc_hd__a21o_4
*I *1692:B I *D sky130_fd_sc_hd__nand3_2
*I *1690:Y O *D sky130_fd_sc_hd__nand4_2
*CAP
1 *1776:B 0.000169314
2 *1693:A2 4.23312e-05
3 *1692:B 0.00032599
4 *1690:Y 0
5 *168:21 0.000354275
6 *168:6 0.00046862
7 *1692:B *1690:A 5.15096e-05
8 *1692:B *1692:C 4.344e-05
9 *1692:B *438:78 0.000223043
10 *1776:B *243:10 0
11 *1776:B *244:10 0
12 *168:21 *1690:A 1.14452e-05
13 *168:21 *1693:A1 0
14 *168:21 *243:10 0
15 *1689:B1 *1692:B 1.01436e-05
16 *1776:A *1692:B 0
17 *1776:A *1776:B 0
18 *1776:A *168:21 0
19 *166:8 *1692:B 0
*RES
1 *1690:Y *168:6 38 
2 *168:6 *1692:B 44.6907 
3 *168:6 *168:21 2.61 
4 *168:21 *1693:A2 38.6214 
5 *168:21 *1776:B 41.3143 
*END

*D_NET *169 0.00268234
*CONN
*I *1693:A1 I *D sky130_fd_sc_hd__a21o_4
*I *1692:C I *D sky130_fd_sc_hd__nand3_2
*I *1691:X O *D sky130_fd_sc_hd__a22o_4
*CAP
1 *1693:A1 0.000266676
2 *1692:C 0.000212509
3 *1691:X 0.000338544
4 *169:8 0.000817729
5 *1692:C *170:14 0.000195248
6 *1693:A1 *170:14 1.01436e-05
7 *1693:A1 *243:10 0.000141879
8 *169:8 *1690:B 3.34247e-05
9 *169:8 *1691:A1 0.000441065
10 *1691:B1 *169:8 0.000103637
11 *1692:B *1692:C 4.344e-05
12 *1693:B1 *1693:A1 7.8043e-05
13 *168:21 *1693:A1 0
*RES
1 *1691:X *169:8 45.7679 
2 *169:8 *1692:C 42.6814 
3 *169:8 *1693:A1 43.6343 
*END

*D_NET *170 0.00205261
*CONN
*I *1695:A2 I *D sky130_fd_sc_hd__a21o_4
*I *1694:B I *D sky130_fd_sc_hd__nand3_2
*I *1766:B1_N I *D sky130_fd_sc_hd__a21bo_4
*I *1692:Y O *D sky130_fd_sc_hd__nand3_2
*CAP
1 *1695:A2 0.000104097
2 *1694:B 0
3 *1766:B1_N 0
4 *1692:Y 0
5 *170:29 0.000387135
6 *170:14 0.000514005
7 *170:4 0.000230967
8 *170:14 *243:10 2.02872e-05
9 *170:29 *1766:A2 5.50106e-05
10 *170:29 *171:10 0.000197479
11 *170:29 *243:10 5.56356e-05
12 *170:29 *445:23 1.94522e-05
13 *1692:C *170:14 0.000195248
14 *1693:A1 *170:14 1.01436e-05
15 *1693:B1 *170:14 0.000195248
16 *1694:A *170:29 6.32688e-05
17 *98:19 *170:29 4.6318e-06
*RES
1 *1692:Y *170:4 23 
2 *170:4 *170:14 33.7286 
3 *170:14 *1766:B1_N 23 
4 *170:14 *170:29 37.1879 
5 *170:29 *1694:B 23 
6 *170:4 *1695:A2 24.5743 
*END

*D_NET *171 0.00207735
*CONN
*I *1694:C I *D sky130_fd_sc_hd__nand3_2
*I *1766:A2 I *D sky130_fd_sc_hd__a21bo_4
*I *1695:A1 I *D sky130_fd_sc_hd__a21o_4
*I *1693:X O *D sky130_fd_sc_hd__a21o_4
*CAP
1 *1694:C 0.000171384
2 *1766:A2 0.000129238
3 *1695:A1 0.000234778
4 *1693:X 0.000138211
5 *171:10 0.00050943
6 *171:6 0.000455008
7 *1694:C *172:6 0.000102093
8 *171:10 *243:10 0
9 *171:10 *445:23 0
10 *1694:A *1694:C 1.41077e-05
11 *98:19 *1695:A1 6.38947e-05
12 *98:19 *171:10 6.7177e-06
13 *170:29 *1766:A2 5.50106e-05
14 *170:29 *171:10 0.000197479
*RES
1 *1693:X *171:6 25.0507 
2 *171:6 *171:10 18.3143 
3 *171:10 *1695:A1 42.6814 
4 *171:10 *1766:A2 40.0507 
5 *171:6 *1694:C 26.5007 
*END

*D_NET *172 0.00345168
*CONN
*I *1708:A I *D sky130_fd_sc_hd__nand3_2
*I *1709:A1 I *D sky130_fd_sc_hd__a21o_4
*I *1694:Y O *D sky130_fd_sc_hd__nand3_2
*CAP
1 *1708:A 0
2 *1709:A1 0.000214652
3 *1694:Y 0.00120839
4 *172:10 0.000341273
5 *172:6 0.00133501
6 *1709:A1 *1709:B1 0
7 *1709:A1 *173:14 0
8 *172:6 *1607:A 5.3304e-05
9 *172:10 *1709:B1 0
10 *172:10 *184:12 0
11 *172:10 *185:8 0
12 *1694:A *172:6 5.50049e-05
13 *1694:C *172:6 0.000102093
14 *86:10 *172:6 0.000141954
*RES
1 *1694:Y *172:6 43.6314 
2 *172:6 *172:10 17.2579 
3 *172:10 *1709:A1 41.9357 
4 *172:10 *1708:A 38 
*END

*D_NET *173 0.00377343
*CONN
*I *1709:A2 I *D sky130_fd_sc_hd__a21o_4
*I *2092:A I *D sky130_fd_sc_hd__buf_2
*I *1695:X O *D sky130_fd_sc_hd__a21o_4
*CAP
1 *1709:A2 0.000119561
2 *2092:A 0
3 *1695:X 0.00132165
4 *173:14 0.000227707
5 *173:8 0.00166892
6 *173:8 *1605:D 0.00018282
7 *173:8 *497:58 2.02872e-05
8 *173:8 *497:71 2.02872e-05
9 *1608:A *173:8 2.93747e-05
10 *1611:A *173:14 0
11 *1706:B1 *173:14 0
12 *1709:A1 *173:14 0
13 *84:10 *173:8 0.000182826
*RES
1 *1695:X *173:8 40.3171 
2 *173:8 *173:14 34.0186 
3 *173:14 *2092:A 23 
4 *173:8 *1709:A2 24.9471 
*END

*D_NET *174 0.000953717
*CONN
*I *1705:A I *D sky130_fd_sc_hd__xnor2_4
*I *1788:A1 I *D sky130_fd_sc_hd__o21ba_2
*I *1696:Y O *D sky130_fd_sc_hd__nand2_2
*CAP
1 *1705:A 8.1064e-05
2 *1788:A1 0
3 *1696:Y 8.47456e-05
4 *174:14 0.000305059
5 *174:6 0.000470868
6 *174:14 *1696:A 0
7 *174:14 *182:8 0
8 *174:14 *184:31 0
9 *174:14 *257:10 1.19796e-05
10 *174:14 *443:112 0
11 *174:14 *512:80 0
*RES
1 *1696:Y *174:6 24.5743 
2 *174:6 *174:14 35.5721 
3 *174:14 *1788:A1 23 
4 *174:6 *1705:A 24.5743 
*END

*D_NET *175 0.0018737
*CONN
*I *1783:A1 I *D sky130_fd_sc_hd__a21o_2
*I *1697:Y O *D sky130_fd_sc_hd__nand2_2
*CAP
1 *1783:A1 0
2 *1697:Y 0.000410032
3 *175:10 0.000410032
4 *175:10 *1781:C 0.000382564
5 *175:10 *261:12 0
6 *175:10 *445:51 6.16531e-05
7 *175:10 *506:10 0.000192671
8 *175:10 *506:12 6.26252e-05
9 *175:10 *512:66 0.000354122
*RES
1 *1697:Y *175:10 48.44 
2 *175:10 *1783:A1 38 
*END

*D_NET *176 0.00158566
*CONN
*I *1700:B1 I *D sky130_fd_sc_hd__a22o_2
*I *1701:C I *D sky130_fd_sc_hd__nand4_2
*I *1780:A I *D sky130_fd_sc_hd__nand2_2
*I *1698:Y O *D sky130_fd_sc_hd__nand4_2
*CAP
1 *1700:B1 0.000170998
2 *1701:C 0.000134925
3 *1780:A 0
4 *1698:Y 0.000151261
5 *176:10 0.000134925
6 *176:8 0.000322259
7 *1700:B1 *1700:A1 5.50106e-05
8 *1700:B1 *1700:B2 9.75779e-05
9 *1700:B1 *1784:A 1.22803e-05
10 *1700:B1 *177:10 0
11 *1700:B1 *256:14 2.18506e-05
12 *1700:B1 *443:126 4.334e-05
13 *1700:B1 *445:51 5.44006e-05
14 *1701:C *1780:B 8.32456e-05
15 *1701:C *257:8 3.53115e-05
16 *1701:C *443:126 0.000195942
17 *176:8 *177:10 0
18 *176:8 *445:23 2.76611e-06
19 *176:8 *445:51 6.95665e-05
20 *176:8 *512:80 0
*RES
1 *1698:Y *176:8 40.9621 
2 *176:8 *176:10 15 
3 *176:10 *1780:A 23 
4 *176:10 *1701:C 26.9979 
5 *176:8 *1700:B1 41.8321 
*END

*D_NET *177 0.00244254
*CONN
*I *1700:B2 I *D sky130_fd_sc_hd__a22o_2
*I *1701:D I *D sky130_fd_sc_hd__nand4_2
*I *1699:X O *D sky130_fd_sc_hd__a22o_2
*CAP
1 *1700:B2 0.000304624
2 *1701:D 0
3 *1699:X 0.000576524
4 *177:10 0.000881148
5 *1700:B2 *1700:A1 2.18409e-05
6 *1700:B2 *1784:A 3.83778e-05
7 *1700:B2 *256:14 0.000123089
8 *1700:B2 *443:126 3.83778e-05
9 *1700:B2 *512:68 0
10 *1700:B2 *512:70 0
11 *1700:B2 *512:80 0
12 *177:10 *1604:B 1.90232e-05
13 *177:10 *1698:A 3.06338e-05
14 *177:10 *497:25 0.000311321
15 *177:10 *512:80 0
16 *1700:B1 *1700:B2 9.75779e-05
17 *1700:B1 *177:10 0
18 *176:8 *177:10 0
*RES
1 *1699:X *177:10 46.5964 
2 *177:10 *1701:D 38 
3 *177:10 *1700:B2 43.0336 
*END

*D_NET *178 0.00170708
*CONN
*I *1702:B I *D sky130_fd_sc_hd__and3_2
*I *1703:A1 I *D sky130_fd_sc_hd__a21oi_2
*I *1700:X O *D sky130_fd_sc_hd__a22o_2
*CAP
1 *1702:B 0
2 *1703:A1 0
3 *1700:X 0.000129105
4 *178:23 0.00030056
5 *178:8 0.000429665
6 *178:8 *1700:A2 5.41288e-05
7 *178:8 *256:14 0.000225399
8 *178:23 *256:14 1.40958e-05
9 *178:23 *257:8 0.000139352
10 *178:23 *443:112 5.94125e-05
11 *178:23 *514:33 7.69935e-05
12 *83:8 *178:23 0.000114083
13 *83:20 *178:23 0.000164282
*RES
1 *1700:X *178:8 26.3764 
2 *178:8 *1703:A1 23 
3 *178:8 *178:23 35.8621 
4 *178:23 *1702:B 23 
*END

*D_NET *179 0.00160475
*CONN
*I *1703:A2 I *D sky130_fd_sc_hd__a21oi_2
*I *1702:C I *D sky130_fd_sc_hd__and3_2
*I *1780:B I *D sky130_fd_sc_hd__nand2_2
*I *1701:Y O *D sky130_fd_sc_hd__nand4_2
*CAP
1 *1703:A2 4.85804e-05
2 *1702:C 0.000226727
3 *1780:B 5.74437e-05
4 *1701:Y 8.42236e-05
5 *179:22 0.000302087
6 *1702:C *257:8 2.47815e-05
7 *1702:C *443:126 6.74169e-05
8 *1703:A2 *512:68 1.01436e-05
9 *1703:A2 *512:70 0.000130433
10 *1703:A2 *514:33 0.000141879
11 *1780:B *257:8 0.000141052
12 *179:22 *512:70 6.38845e-05
13 *179:22 *512:80 3.92407e-05
14 *179:22 *514:33 8.94394e-05
15 *1701:C *1780:B 8.32456e-05
16 *83:12 *1702:C 9.41704e-05
*RES
1 *1701:Y *1780:B 48.0714 
2 *1701:Y *179:22 39.2014 
3 *179:22 *1702:C 41.0036 
4 *179:22 *1703:A2 39.9057 
*END

*D_NET *180 0.00116024
*CONN
*I *1704:A I *D sky130_fd_sc_hd__nor2_4
*I *1788:B1_N I *D sky130_fd_sc_hd__o21ba_2
*I *1702:X O *D sky130_fd_sc_hd__and3_2
*CAP
1 *1704:A 0.000154887
2 *1788:B1_N 1.26784e-05
3 *1702:X 0.000196617
4 *180:8 0.000364182
5 *1704:A *1704:B 0.000159331
6 *1704:A *265:10 9.84851e-05
7 *1788:B1_N *1704:B 1.14154e-05
8 *180:8 *1704:B 0.000107639
9 *180:8 *265:10 5.50049e-05
10 *180:8 *443:112 0
*RES
1 *1702:X *180:8 26.9771 
2 *180:8 *1788:B1_N 23.4971 
3 *180:8 *1704:A 26.9771 
*END

*D_NET *181 0.00148205
*CONN
*I *1788:A2 I *D sky130_fd_sc_hd__o21ba_2
*I *1704:B I *D sky130_fd_sc_hd__nor2_4
*I *1703:Y O *D sky130_fd_sc_hd__a21oi_2
*CAP
1 *1788:A2 0
2 *1704:B 0.000193336
3 *1703:Y 0.00037874
4 *181:12 0.000193336
5 *181:10 0.00037874
6 *181:10 *184:31 0
7 *181:10 *256:14 2.72245e-05
8 *181:10 *257:10 0
9 *1704:A *1704:B 0.000159331
10 *1788:B1_N *1704:B 1.14154e-05
11 *83:20 *181:10 3.22879e-05
12 *180:8 *1704:B 0.000107639
*RES
1 *1703:Y *181:10 43.3857 
2 *181:10 *181:12 15 
3 *181:12 *1704:B 28.0957 
4 *181:12 *1788:A2 23 
*END

*D_NET *182 0.000679853
*CONN
*I *1705:B I *D sky130_fd_sc_hd__xnor2_4
*I *1704:Y O *D sky130_fd_sc_hd__nor2_4
*CAP
1 *1705:B 3.77894e-05
2 *1704:Y 0.00026507
3 *182:8 0.00030286
4 *182:8 *1821:A2 0
5 *182:8 *184:23 0
6 *182:8 *184:31 7.41334e-05
7 *174:14 *182:8 0
*RES
1 *1704:Y *182:8 43.4271 
2 *182:8 *1705:B 38.6214 
*END

*D_NET *183 0.00186791
*CONN
*I *1821:A2 I *D sky130_fd_sc_hd__a21oi_2
*I *1792:A I *D sky130_fd_sc_hd__nand2_2
*I *1707:B I *D sky130_fd_sc_hd__xor2_2
*I *1705:Y O *D sky130_fd_sc_hd__xnor2_4
*CAP
1 *1821:A2 0.000491397
2 *1792:A 0
3 *1707:B 0.000110834
4 *1705:Y 0
5 *183:15 0.000604278
6 *183:6 0.000223714
7 *1707:B *184:12 6.07611e-06
8 *1707:B *184:23 0.000117121
9 *1707:B *242:8 0
10 *1821:A2 *184:31 0
11 *1821:A2 *242:8 0
12 *1821:A2 *256:14 0.000155566
13 *1821:A2 *265:10 0
14 *1821:A2 *268:10 1.01436e-05
15 *1821:A2 *269:10 0
16 *1821:A2 *297:10 4.02078e-05
17 *183:15 *184:23 0.000108569
18 *183:15 *242:8 0
19 *182:8 *1821:A2 0
*RES
1 *1705:Y *183:6 38 
2 *183:6 *1707:B 17.9621 
3 *183:6 *183:15 2.96214 
4 *183:15 *1792:A 38 
5 *183:15 *1821:A2 47.9739 
*END

*D_NET *184 0.00273509
*CONN
*I *1792:B I *D sky130_fd_sc_hd__nand2_2
*I *1821:A1 I *D sky130_fd_sc_hd__a21oi_2
*I *1707:A I *D sky130_fd_sc_hd__xor2_2
*I *1706:X O *D sky130_fd_sc_hd__a32o_2
*CAP
1 *1792:B 0
2 *1821:A1 0
3 *1707:A 0
4 *1706:X 0.000403995
5 *184:31 0.000530297
6 *184:23 0.000756847
7 *184:12 0.000630545
8 *184:31 *257:10 0
9 *184:31 *265:10 7.03766e-05
10 *1706:B1 *184:12 3.71251e-05
11 *1707:B *184:12 6.07611e-06
12 *1707:B *184:23 0.000117121
13 *1821:A2 *184:31 0
14 *172:10 *184:12 0
15 *174:14 *184:31 0
16 *181:10 *184:31 0
17 *182:8 *184:23 0
18 *182:8 *184:31 7.41334e-05
19 *183:15 *184:23 0.000108569
*RES
1 *1706:X *184:12 43.8829 
2 *184:12 *1707:A 38 
3 *184:12 *184:23 20.7793 
4 *184:23 *184:31 39.7357 
5 *184:31 *1821:A1 23 
6 *184:23 *1792:B 23 
*END

*D_NET *185 0.000920778
*CONN
*I *1708:C I *D sky130_fd_sc_hd__nand3_2
*I *1709:B1 I *D sky130_fd_sc_hd__a21o_4
*I *1707:X O *D sky130_fd_sc_hd__xor2_2
*CAP
1 *1708:C 0
2 *1709:B1 0.00030077
3 *1707:X 8.75635e-05
4 *185:8 0.000388334
5 *1709:B1 *186:23 0
6 *185:8 *242:8 0.00014411
7 *1709:A1 *1709:B1 0
8 *1765:A1 *1709:B1 0
9 *1765:A1 *185:8 0
10 *172:10 *1709:B1 0
11 *172:10 *185:8 0
*RES
1 *1707:X *185:8 40.2579 
2 *185:8 *1709:B1 43.365 
3 *185:8 *1708:C 38 
*END

*D_NET *186 0.00146651
*CONN
*I *1711:A1 I *D sky130_fd_sc_hd__a21oi_2
*I *1710:B I *D sky130_fd_sc_hd__and3_4
*I *1765:B1_N I *D sky130_fd_sc_hd__a21bo_2
*I *1708:Y O *D sky130_fd_sc_hd__nand3_2
*CAP
1 *1711:A1 0
2 *1710:B 0.000123052
3 *1765:B1_N 2.77534e-05
4 *1708:Y 0.000146913
5 *186:23 0.000333388
6 *186:6 0.000385002
7 *1710:B *1710:C 6.51746e-05
8 *1710:B *187:13 8.1796e-05
9 *1710:B *189:8 0.000184527
10 *186:23 *187:19 6.38947e-05
11 *1709:B1 *186:23 0
12 *1710:A *1710:B 5.50106e-05
13 *1765:A1 *186:23 0
14 *160:10 *186:23 0
*RES
1 *1708:Y *186:6 25.5271 
2 *186:6 *1765:B1_N 23.6473 
3 *186:6 *186:23 34.06 
4 *186:23 *1710:B 26.9771 
5 *186:23 *1711:A1 23 
*END

*D_NET *187 0.00124233
*CONN
*I *1710:C I *D sky130_fd_sc_hd__and3_4
*I *1765:A2 I *D sky130_fd_sc_hd__a21bo_2
*I *1711:A2 I *D sky130_fd_sc_hd__a21oi_2
*I *1709:X O *D sky130_fd_sc_hd__a21o_4
*CAP
1 *1710:C 0.000131879
2 *1765:A2 0
3 *1711:A2 0
4 *1709:X 5.90989e-05
5 *187:19 7.36052e-05
6 *187:13 0.000321561
7 *187:6 0.000175176
8 *1710:C *188:6 0
9 *1710:C *189:8 1.76557e-05
10 *1710:A *1710:C 5.50106e-05
11 *1710:B *1710:C 6.51746e-05
12 *1710:B *187:13 8.1796e-05
13 *1765:A1 *187:19 0.000197479
14 *186:23 *187:19 6.38947e-05
*RES
1 *1709:X *187:6 24.0979 
2 *187:6 *1711:A2 23 
3 *187:6 *187:13 2.52714 
4 *187:13 *187:19 32.61 
5 *187:19 *1765:A2 23 
6 *187:13 *1710:C 26.0243 
*END

*D_NET *188 0.00550935
*CONN
*I *1728:A1 I *D sky130_fd_sc_hd__o21a_4
*I *1727:A I *D sky130_fd_sc_hd__nor3_2
*I *1710:X O *D sky130_fd_sc_hd__and3_4
*CAP
1 *1728:A1 0.000224539
2 *1727:A 0.000148705
3 *1710:X 2.34823e-05
4 *188:10 0.00187303
5 *188:6 0.00152327
6 *1727:A *1727:B 0.000165156
7 *1727:A *1728:A2 0.000115013
8 *1727:A *204:14 1.83564e-05
9 *1727:A *204:25 0
10 *1727:A *205:10 6.16531e-05
11 *1727:A *469:8 2.93747e-05
12 *1728:A1 *1728:A2 9.30931e-05
13 *1728:A1 *204:14 0.000152252
14 *188:6 *1714:A1 0
15 *188:10 *1714:A1 5.50106e-05
16 *188:10 *1714:B1 1.21972e-05
17 *188:10 *1720:A 0.000224605
18 *188:10 *1726:B 5.70419e-05
19 *188:10 *189:8 0.000112445
20 *188:10 *189:16 0.000432472
21 *188:10 *197:8 5.50049e-05
22 *188:10 *203:12 7.44354e-05
23 *1710:C *188:6 0
24 *1719:A *188:10 2.64616e-05
25 *1726:A *188:10 3.17516e-05
26 *119:19 *1727:A 0
*RES
1 *1710:X *188:6 23.4971 
2 *188:6 *188:10 41.825 
3 *188:10 *1727:A 41.9357 
4 *188:10 *1728:A1 43.075 
*END

*D_NET *189 0.0069945
*CONN
*I *1728:A2 I *D sky130_fd_sc_hd__o21a_4
*I *1727:B I *D sky130_fd_sc_hd__nor3_2
*I *1711:Y O *D sky130_fd_sc_hd__a21oi_2
*CAP
1 *1728:A2 0.000205269
2 *1727:B 0.000214617
3 *1711:Y 0.00093793
4 *189:16 0.00116193
5 *189:8 0.00167997
6 *1727:B *205:10 5.50106e-05
7 *1727:B *469:8 6.87362e-05
8 *1728:A2 *203:12 0
9 *189:8 *1714:A1 1.57571e-05
10 *189:8 *1714:B1 5.3304e-05
11 *189:8 *1720:A 4.94192e-05
12 *189:16 *1720:A 5.41288e-05
13 *189:16 *197:8 2.93747e-05
14 *189:16 *198:8 0.000995807
15 *189:16 *203:12 7.23724e-05
16 *1710:B *189:8 0.000184527
17 *1710:C *189:8 1.76557e-05
18 *1719:A *189:16 5.3304e-05
19 *1726:A *189:16 0.000227208
20 *1727:A *1727:B 0.000165156
21 *1727:A *1728:A2 0.000115013
22 *1728:A1 *1728:A2 9.30931e-05
23 *1797:A1 *1728:A2 0
24 *119:19 *1727:B 0
25 *188:10 *189:8 0.000112445
26 *188:10 *189:16 0.000432472
*RES
1 *1711:Y *189:8 36.0293 
2 *189:8 *189:16 34.3679 
3 *189:16 *1727:B 42.5779 
4 *189:16 *1728:A2 42.0186 
*END

*D_NET *190 0.00144091
*CONN
*I *1800:A1 I *D sky130_fd_sc_hd__a21oi_2
*I *1712:Y O *D sky130_fd_sc_hd__nand2_2
*CAP
1 *1800:A1 4.83497e-05
2 *1712:Y 0.000241227
3 *190:10 0.000289576
4 *1800:A1 *1846:B1 1.24376e-05
5 *1800:A1 *273:8 2.98648e-05
6 *1800:A1 *277:10 2.93845e-05
7 *1800:A1 *470:37 0.000126914
8 *190:10 *1712:A 5.50049e-05
9 *190:10 *1712:B 3.88766e-05
10 *190:10 *1798:A 0.000180212
11 *190:10 *1798:D 9.41704e-05
12 *190:10 *1800:A2 3.70094e-05
13 *190:10 *1802:C 4.6318e-06
14 *190:10 *275:10 6.17437e-06
15 *190:10 *277:10 7.34962e-05
16 *190:10 *322:8 6.70363e-05
17 *190:10 *383:12 0
18 *190:10 *452:51 1.58805e-05
19 *190:10 *452:62 6.08032e-05
20 *190:10 *469:32 2.98648e-05
*RES
1 *1712:Y *190:10 44.4421 
2 *190:10 *1800:A1 39.5743 
*END

*D_NET *191 0.00402559
*CONN
*I *1804:A1 I *D sky130_fd_sc_hd__o21a_2
*I *1805:A I *D sky130_fd_sc_hd__nor3_2
*I *1715:A I *D sky130_fd_sc_hd__nor2_2
*I *1713:X O *D sky130_fd_sc_hd__and4_2
*CAP
1 *1804:A1 8.51548e-05
2 *1805:A 0
3 *1715:A 0
4 *1713:X 0.000202621
5 *191:31 0.000230339
6 *191:23 0.000728133
7 *191:10 0.00061526
8 *1804:A1 *195:10 7.43641e-05
9 *191:10 *1713:A 8.80821e-05
10 *191:10 *192:8 8.76088e-05
11 *191:10 *451:60 2.69411e-05
12 *191:10 *452:36 0.000212621
13 *191:10 *452:51 0.000224345
14 *191:10 *467:99 6.6869e-05
15 *191:23 *1717:A 0.000113302
16 *191:23 *1802:A 7.59794e-05
17 *191:23 *1802:B 9.4713e-05
18 *191:23 *192:8 6.07611e-06
19 *191:23 *279:10 4.75206e-05
20 *191:23 *451:60 5.95199e-05
21 *191:23 *452:51 0.000404307
22 *191:23 *469:32 0.000225265
23 *191:23 *469:82 2.64616e-05
24 *191:31 *193:21 3.3123e-05
25 *191:31 *279:10 0.000141879
26 *191:31 *279:19 1.14452e-05
27 *191:31 *280:6 0.000143655
28 *191:31 *280:12 0
*RES
1 *1713:X *191:10 44.4007 
2 *191:10 *1715:A 38 
3 *191:10 *191:23 26.7657 
4 *191:23 *191:31 35.0129 
5 *191:31 *1805:A 23 
6 *191:23 *1804:A1 25.0714 
*END

*D_NET *192 0.000370169
*CONN
*I *1715:B I *D sky130_fd_sc_hd__nor2_2
*I *1714:Y O *D sky130_fd_sc_hd__a22oi_2
*CAP
1 *1715:B 0
2 *1714:Y 5.22895e-05
3 *192:8 5.22895e-05
4 *192:8 *451:60 0.000171906
5 *191:10 *192:8 8.76088e-05
6 *191:23 *192:8 6.07611e-06
*RES
1 *1714:Y *192:8 40.2579 
2 *192:8 *1715:B 38 
*END

*D_NET *193 0.00148813
*CONN
*I *1717:C I *D sky130_fd_sc_hd__and3_2
*I *1718:A I *D sky130_fd_sc_hd__xnor2_2
*I *1715:Y O *D sky130_fd_sc_hd__nor2_2
*CAP
1 *1717:C 0
2 *1718:A 0
3 *1715:Y 0.000278286
4 *193:21 0.000337699
5 *193:8 0.000615985
6 *193:21 *1720:B 0
7 *193:21 *469:82 0.000223034
8 *193:21 *470:39 0
9 *191:31 *193:21 3.3123e-05
*RES
1 *1715:Y *193:8 26.9771 
2 *193:8 *1718:A 23 
3 *193:8 *193:21 36.7529 
4 *193:21 *1717:C 23 
*END

*D_NET *194 0.000587154
*CONN
*I *1718:B I *D sky130_fd_sc_hd__xnor2_2
*I *1716:Y O *D sky130_fd_sc_hd__nand2_2
*CAP
1 *1718:B 0
2 *1716:Y 0.000102453
3 *194:10 0.000102453
4 *194:10 *1720:B 0.000163352
5 *194:10 *383:12 0.000165593
6 *194:10 *469:82 5.3304e-05
*RES
1 *1716:Y *194:10 40.8793 
2 *194:10 *1718:B 38 
*END

*D_NET *195 0.00085302
*CONN
*I *1805:B I *D sky130_fd_sc_hd__nor3_2
*I *1804:A2 I *D sky130_fd_sc_hd__o21a_2
*I *1717:X O *D sky130_fd_sc_hd__and3_2
*CAP
1 *1805:B 0
2 *1804:A2 0
3 *1717:X 0.000100241
4 *195:23 0.000190348
5 *195:10 0.000290588
6 *195:23 *1811:A 0
7 *195:23 *280:12 0.000197479
8 *195:23 *281:10 0
9 *195:23 *281:19 0
10 *1804:A1 *195:10 7.43641e-05
*RES
1 *1717:X *195:10 25.5686 
2 *195:10 *1804:A2 23 
3 *195:10 *195:23 34.1843 
4 *195:23 *1805:B 23 
*END

*D_NET *196 0.000701329
*CONN
*I *1807:A2 I *D sky130_fd_sc_hd__a21oi_2
*I *1719:B I *D sky130_fd_sc_hd__xnor2_2
*I *1718:Y O *D sky130_fd_sc_hd__xnor2_2
*CAP
1 *1807:A2 0
2 *1719:B 0
3 *1718:Y 0.000135859
4 *196:12 0.000118217
5 *196:6 0.000254076
6 *196:6 *1807:A1 9.67842e-05
7 *196:12 *1721:A 0
8 *196:12 *1722:A 0
9 *196:12 *1807:A1 9.63918e-05
*RES
1 *1718:Y *196:6 25.5271 
2 *196:6 *196:12 32.61 
3 *196:12 *1719:B 23 
4 *196:6 *1807:A2 23 
*END

*D_NET *197 0.00118091
*CONN
*I *1721:A I *D sky130_fd_sc_hd__nor2_2
*I *1722:A I *D sky130_fd_sc_hd__and2_2
*I *1719:Y O *D sky130_fd_sc_hd__xnor2_2
*CAP
1 *1721:A 0.000125209
2 *1722:A 0.000194199
3 *1719:Y 1.80505e-05
4 *197:8 0.000337458
5 *1721:A *1807:B1 0.000192087
6 *1721:A *352:11 1.37349e-05
7 *1722:A *1723:B 6.38845e-05
8 *1722:A *1807:A1 0
9 *1722:A *1807:B1 0.000151907
10 *1722:A *496:10 0
11 *188:10 *197:8 5.50049e-05
12 *189:16 *197:8 2.93747e-05
13 *196:12 *1721:A 0
14 *196:12 *1722:A 0
*RES
1 *1719:Y *197:8 38.6214 
2 *197:8 *1722:A 41.5836 
3 *197:8 *1721:A 40.9621 
*END

*D_NET *198 0.00385042
*CONN
*I *1721:B I *D sky130_fd_sc_hd__nor2_2
*I *1722:B I *D sky130_fd_sc_hd__and2_2
*I *1720:X O *D sky130_fd_sc_hd__and2_2
*CAP
1 *1721:B 9.16858e-05
2 *1722:B 0.000171195
3 *1720:X 0.000702646
4 *198:8 0.000965528
5 *1721:B *199:8 0.000274553
6 *1721:B *202:10 0
7 *1721:B *352:11 0.000292205
8 *1722:B *1724:C 5.50106e-05
9 *1722:B *199:8 0.000111852
10 *1722:B *200:20 5.3304e-05
11 *1722:B *352:11 0.000108681
12 *1722:B *469:8 2.79543e-05
13 *189:16 *198:8 0.000995807
*RES
1 *1720:X *198:8 49.1029 
2 *198:8 *1722:B 41.625 
3 *198:8 *1721:B 42.0186 
*END

*D_NET *199 0.00154664
*CONN
*I *1724:B I *D sky130_fd_sc_hd__or3_2
*I *1723:A I *D sky130_fd_sc_hd__nor2_2
*I *1721:Y O *D sky130_fd_sc_hd__nor2_2
*CAP
1 *1724:B 0
2 *1723:A 0.000100122
3 *1721:Y 0.000178913
4 *199:8 0.000279035
5 *1723:A *352:11 8.06039e-05
6 *199:8 *202:10 6.11286e-05
7 *199:8 *352:11 4.49124e-05
8 *1721:B *199:8 0.000274553
9 *1722:B *199:8 0.000111852
10 *1725:A *199:8 0.000211979
11 *114:23 *1723:A 0.000114092
12 *114:23 *199:8 8.94487e-05
13 *119:19 *1723:A 0
*RES
1 *1721:Y *199:8 44.4836 
2 *199:8 *1723:A 40.2579 
3 *199:8 *1724:B 38 
*END

*D_NET *200 0.00251426
*CONN
*I *1807:B1 I *D sky130_fd_sc_hd__a21oi_2
*I *1723:B I *D sky130_fd_sc_hd__nor2_2
*I *1724:C I *D sky130_fd_sc_hd__or3_2
*I *1722:X O *D sky130_fd_sc_hd__and2_2
*CAP
1 *1807:B1 0.000203915
2 *1723:B 0.000260649
3 *1724:C 4.52982e-05
4 *1722:X 9.52203e-05
5 *200:20 0.000514485
6 *1723:B *352:11 0.00026916
7 *1723:B *496:10 0
8 *1724:C *469:8 5.12254e-05
9 *1807:B1 *284:10 3.16665e-05
10 *1807:B1 *352:11 0.000346225
11 *1721:A *1807:B1 0.000192087
12 *1722:A *1723:B 6.38845e-05
13 *1722:A *1807:B1 0.000151907
14 *1722:B *1724:C 5.50106e-05
15 *1722:B *200:20 5.3304e-05
16 *114:23 *1723:B 0.000180224
17 *115:8 *1723:B 0
*RES
1 *1722:X *1724:C 47.0979 
2 *1722:X *200:20 38.6214 
3 *200:20 *1723:B 44.2143 
4 *200:20 *1807:B1 43.8207 
*END

*D_NET *201 0.000871141
*CONN
*I *1725:B I *D sky130_fd_sc_hd__xor2_2
*I *1723:Y O *D sky130_fd_sc_hd__nor2_2
*CAP
1 *1725:B 0
2 *1723:Y 0.000169653
3 *201:8 0.000169653
4 *201:8 *202:10 0.000140958
5 *1725:A *201:8 0.000196549
6 *114:23 *201:8 0.000194327
7 *119:19 *201:8 0
*RES
1 *1723:Y *201:8 43.075 
2 *201:8 *1725:B 15 
*END

*D_NET *202 0.00076353
*CONN
*I *1797:B1 I *D sky130_fd_sc_hd__o21ai_2
*I *1724:X O *D sky130_fd_sc_hd__or3_2
*CAP
1 *1797:B1 0
2 *1724:X 0.000264674
3 *202:10 0.000264674
4 *202:10 *203:12 0
5 *202:10 *469:8 1.73399e-05
6 *1721:B *202:10 0
7 *1725:A *202:10 1.47563e-05
8 *1797:A1 *202:10 0
9 *119:19 *202:10 0
10 *199:8 *202:10 6.11286e-05
11 *201:8 *202:10 0.000140958
*RES
1 *1724:X *202:10 43.6964 
2 *202:10 *1797:B1 38 
*END

*D_NET *203 0.000852268
*CONN
*I *1726:B I *D sky130_fd_sc_hd__xnor2_2
*I *1797:A2 I *D sky130_fd_sc_hd__o21ai_2
*I *1725:X O *D sky130_fd_sc_hd__xor2_2
*CAP
1 *1726:B 1.40161e-05
2 *1797:A2 0
3 *1725:X 0
4 *203:12 0.000183634
5 *203:4 0.00019765
6 *1726:A *1726:B 8.6949e-05
7 *1726:A *203:12 5.50106e-05
8 *1728:A2 *203:12 0
9 *1797:A1 *203:12 0.000111158
10 *188:10 *1726:B 5.70419e-05
11 *188:10 *203:12 7.44354e-05
12 *189:16 *203:12 7.23724e-05
13 *202:10 *203:12 0
*RES
1 *1725:X *203:4 23 
2 *203:4 *203:12 34.8886 
3 *203:12 *1797:A2 23 
4 *203:4 *1726:B 24.0979 
*END

*D_NET *204 0.00108478
*CONN
*I *1727:C I *D sky130_fd_sc_hd__nor3_2
*I *1728:B1 I *D sky130_fd_sc_hd__o21a_4
*I *1726:Y O *D sky130_fd_sc_hd__xnor2_2
*CAP
1 *1727:C 0
2 *1728:B1 0
3 *1726:Y 3.65708e-05
4 *204:25 0.000135104
5 *204:14 0.000230349
6 *204:6 0.000402023
7 *204:14 *1814:A_N 0
8 *204:14 *241:8 0
9 *204:25 *1814:A_N 1.22803e-05
10 *204:25 *205:26 8.76088e-05
11 *204:25 *222:8 1.02387e-05
12 *1727:A *204:14 1.83564e-05
13 *1727:A *204:25 0
14 *1728:A1 *204:14 0.000152252
*RES
1 *1726:Y *204:6 23.6214 
2 *204:6 *204:14 34.6607 
3 *204:14 *1728:B1 23 
4 *204:6 *204:25 32.9621 
5 *204:25 *1727:C 23 
*END

*D_NET *205 0.00191538
*CONN
*I *1814:A_N I *D sky130_fd_sc_hd__and2b_2
*I *1744:A I *D sky130_fd_sc_hd__or3_4
*I *1745:A1 I *D sky130_fd_sc_hd__o21ai_2
*I *1727:Y O *D sky130_fd_sc_hd__nor3_2
*CAP
1 *1814:A_N 0.000164608
2 *1744:A 0.000193643
3 *1745:A1 0
4 *1727:Y 0.000309305
5 *205:26 0.000414487
6 *205:10 0.00025307
7 *1744:A *1744:B 7.44354e-05
8 *1814:A_N *206:10 2.93845e-05
9 *1814:A_N *241:8 9.74235e-05
10 *205:10 *222:8 0
11 *205:10 *223:12 6.07611e-06
12 *205:26 *222:8 0.00014411
13 *205:26 *241:8 1.22803e-05
14 *1727:A *205:10 6.16531e-05
15 *1727:B *205:10 5.50106e-05
16 *119:19 *205:10 0
17 *204:14 *1814:A_N 0
18 *204:25 *1814:A_N 1.22803e-05
19 *204:25 *205:26 8.76088e-05
*RES
1 *1727:Y *205:10 42.2879 
2 *205:10 *1745:A1 38 
3 *1727:Y *205:26 40.2579 
4 *205:26 *1744:A 41.0036 
5 *205:26 *1814:A_N 41.7286 
*END

*D_NET *206 0.00117686
*CONN
*I *2095:A I *D sky130_fd_sc_hd__buf_2
*I *1744:C I *D sky130_fd_sc_hd__or3_4
*I *1728:X O *D sky130_fd_sc_hd__o21a_4
*CAP
1 *2095:A 3.79282e-05
2 *1744:C 0
3 *1728:X 0.000312941
4 *206:16 0.000114832
5 *206:10 0.000389845
6 *206:10 *291:10 2.93747e-05
7 *206:10 *340:10 0
8 *206:10 *484:8 9.63918e-05
9 *206:16 *1744:B 5.50106e-05
10 *1814:A_N *206:10 2.93845e-05
11 *43:8 *206:10 0.000111148
*RES
1 *1728:X *206:10 44.4421 
2 *206:10 *206:16 16.595 
3 *206:16 *1744:C 23 
4 *206:16 *2095:A 23.6214 
*END

*D_NET *207 0.000835585
*CONN
*I *1754:A1 I *D sky130_fd_sc_hd__a21oi_2
*I *1729:Y O *D sky130_fd_sc_hd__nand2_2
*CAP
1 *1754:A1 2.18409e-05
2 *1729:Y 0.000173316
3 *207:10 0.000195157
4 *1754:A1 *1756:C 1.32314e-05
5 *1754:A1 *465:24 5.50049e-05
6 *207:10 *1729:B 6.17437e-06
7 *207:10 *230:23 6.17437e-06
8 *207:10 *232:8 0.000105165
9 *207:10 *234:22 2.79543e-05
10 *207:10 *448:34 0.000137651
11 *207:10 *465:24 9.39159e-05
12 *207:10 *466:12 0
*RES
1 *1729:Y *207:10 42.5364 
2 *207:10 *1754:A1 38.6214 
*END

*D_NET *208 0.00343645
*CONN
*I *1758:A1 I *D sky130_fd_sc_hd__o21a_2
*I *1759:A I *D sky130_fd_sc_hd__nor3_2
*I *1733:B_N I *D sky130_fd_sc_hd__and4bb_2
*I *1732:B1 I *D sky130_fd_sc_hd__o2bb2a_2
*I *1730:X O *D sky130_fd_sc_hd__and3_2
*CAP
1 *1758:A1 0
2 *1759:A 0.00012439
3 *1733:B_N 0
4 *1732:B1 0.00033077
5 *1730:X 0.000568007
6 *208:34 0.000191225
7 *208:25 6.68347e-05
8 *208:10 0.000898777
9 *1732:B1 *1732:A1_N 0.000129822
10 *1732:B1 *1732:A2_N 2.3191e-05
11 *1732:B1 *1734:B 0
12 *1732:B1 *447:80 1.83564e-05
13 *1732:B1 *501:10 0
14 *1759:A *1758:B1 5.50106e-05
15 *1759:A *1759:B 0.000272984
16 *1759:A *1759:C 2.3127e-05
17 *1759:A *211:8 1.22822e-05
18 *1759:A *235:10 9.84851e-05
19 *208:10 *1649:B 2.01531e-05
20 *208:10 *2086:A 0
21 *208:10 *234:22 0.000142701
22 *208:10 *447:80 0.000111792
23 *208:10 *501:10 0
24 *208:34 *1759:B 3.91386e-05
25 *208:34 *211:8 0.00014196
26 *125:12 *208:10 0.000167443
*RES
1 *1730:X *208:10 47.7564 
2 *208:10 *1732:B1 44.4629 
3 *208:10 *208:25 15 
4 *208:25 *1733:B_N 23 
5 *208:25 *208:34 2.07143 
6 *208:34 *1759:A 27.6193 
7 *208:34 *1758:A1 23 
*END

*D_NET *209 0.0013436
*CONN
*I *1732:B2 I *D sky130_fd_sc_hd__o2bb2a_2
*I *1733:A_N I *D sky130_fd_sc_hd__and4bb_2
*I *1731:Y O *D sky130_fd_sc_hd__a21oi_2
*CAP
1 *1732:B2 0
2 *1733:A_N 2.34823e-05
3 *1731:Y 0.000282195
4 *209:21 0.000166311
5 *209:6 0.000471987
6 *209:6 *1731:A1 0.0001164
7 *209:6 *519:31 6.87362e-05
8 *209:21 *1732:A2_N 8.88402e-05
9 *209:21 *211:8 1.39317e-05
10 *209:21 *519:10 0
11 *1731:B1 *209:6 5.67058e-05
12 *39:8 *209:6 5.50106e-05
*RES
1 *1731:Y *209:6 28.8621 
2 *209:6 *1733:A_N 23.4971 
3 *209:6 *209:21 33.1279 
4 *209:21 *1732:B2 23 
*END

*D_NET *210 0.000249722
*CONN
*I *1734:A I *D sky130_fd_sc_hd__nor2_2
*I *1732:X O *D sky130_fd_sc_hd__o2bb2a_2
*CAP
1 *1734:A 0.000124861
2 *1732:X 0.000124861
*RES
1 *1732:X *1734:A 48.4236 
*END

*D_NET *211 0.00213453
*CONN
*I *2086:A I *D sky130_fd_sc_hd__buf_2
*I *1734:B I *D sky130_fd_sc_hd__nor2_2
*I *1733:X O *D sky130_fd_sc_hd__and4bb_2
*CAP
1 *2086:A 0.000105805
2 *1734:B 0.000233522
3 *1733:X 0.00042227
4 *211:8 0.000761597
5 *1734:B *1732:A1_N 0
6 *1734:B *212:10 0
7 *1734:B *234:30 3.83778e-05
8 *1734:B *501:10 2.96051e-05
9 *2086:A *234:30 6.4393e-05
10 *2086:A *501:10 6.31207e-05
11 *211:8 *1733:D 9.5877e-05
12 *211:8 *1759:B 9.67842e-05
13 *1732:B1 *1734:B 0
14 *1735:A *2086:A 5.50049e-05
15 *1759:A *211:8 1.22822e-05
16 *208:10 *2086:A 0
17 *208:34 *211:8 0.00014196
18 *209:21 *211:8 1.39317e-05
*RES
1 *1733:X *211:8 43.8621 
2 *211:8 *1734:B 42.0186 
3 *211:8 *2086:A 40.5271 
*END

*D_NET *212 0.00132276
*CONN
*I *1736:B I *D sky130_fd_sc_hd__xnor2_2
*I *1735:B I *D sky130_fd_sc_hd__and2_2
*I *1734:Y O *D sky130_fd_sc_hd__nor2_2
*CAP
1 *1736:B 0.000157966
2 *1735:B 0
3 *1734:Y 0.000503416
4 *212:10 0.000661382
5 *1736:B *234:30 0
6 *1736:B *235:14 0
7 *212:10 *234:30 0
8 *212:10 *235:14 0
9 *1734:B *212:10 0
*RES
1 *1734:Y *212:10 45.9543 
2 *212:10 *1735:B 38 
3 *212:10 *1736:B 40.9621 
*END

*D_NET *213 0.00118747
*CONN
*I *1761:A1 I *D sky130_fd_sc_hd__o21a_2
*I *1762:A I *D sky130_fd_sc_hd__nor3_2
*I *1735:X O *D sky130_fd_sc_hd__and2_2
*CAP
1 *1761:A1 0
2 *1762:A 0
3 *1735:X 0.000257687
4 *213:14 0.000153166
5 *213:6 0.000410853
6 *213:6 *238:10 0.00014196
7 *213:14 *1761:A2 0
8 *213:14 *1762:C 6.46393e-05
9 *213:14 *215:12 1.14452e-05
10 *213:14 *216:8 5.41385e-05
11 *213:14 *237:10 1.19796e-05
12 *213:14 *238:10 8.1606e-05
*RES
1 *1735:X *213:6 27.9093 
2 *213:6 *213:14 34.4121 
3 *213:14 *1762:A 23 
4 *213:6 *1761:A1 23 
*END

*D_NET *214 0.00089215
*CONN
*I *1738:A I *D sky130_fd_sc_hd__nor2_2
*I *1739:A I *D sky130_fd_sc_hd__and2_4
*I *1736:Y O *D sky130_fd_sc_hd__xnor2_2
*CAP
1 *1738:A 0
2 *1739:A 0
3 *1736:Y 0.00010288
4 *214:14 0.000148289
5 *214:6 0.000251169
6 *214:14 *1739:B 2.93845e-05
7 *214:14 *215:6 2.64616e-05
8 *214:14 *215:12 0.000139647
9 *214:14 *217:10 0
10 *214:14 *238:10 0.000194318
*RES
1 *1736:Y *214:6 24.5743 
2 *214:6 *214:14 33.7079 
3 *214:14 *1739:A 23 
4 *214:6 *1738:A 23 
*END

*D_NET *215 0.00462843
*CONN
*I *1739:B I *D sky130_fd_sc_hd__and2_4
*I *1738:B I *D sky130_fd_sc_hd__nor2_2
*I *1737:X O *D sky130_fd_sc_hd__and2_2
*CAP
1 *1739:B 0.00011228
2 *1738:B 0
3 *1737:X 0.00170481
4 *215:12 8.10128e-05
5 *215:6 0.0018981
6 *1739:B *1741:C 0
7 *215:6 *1648:A2 4.1677e-05
8 *215:6 *1648:B1 0.000137651
9 *215:6 *1649:A 0.000135799
10 *215:6 *1737:A 5.03667e-05
11 *215:6 *455:34 2.02872e-05
12 *215:12 *217:10 0
13 *1651:B1_N *215:6 0.000193556
14 *127:8 *215:6 2.07242e-05
15 *127:23 *215:6 2.52266e-05
16 *213:14 *215:12 1.14452e-05
17 *214:14 *1739:B 2.93845e-05
18 *214:14 *215:6 2.64616e-05
19 *214:14 *215:12 0.000139647
*RES
1 *1737:X *215:6 46.0136 
2 *215:6 *215:12 31.9057 
3 *215:12 *1738:B 23 
4 *215:6 *1739:B 24.9471 
*END

*D_NET *216 0.00275826
*CONN
*I *1741:B I *D sky130_fd_sc_hd__or3_4
*I *1740:A I *D sky130_fd_sc_hd__nor2_4
*I *1738:Y O *D sky130_fd_sc_hd__nor2_2
*CAP
1 *1741:B 0.000416553
2 *1740:A 4.62337e-05
3 *1738:Y 0.000620576
4 *216:8 0.00108336
5 *1740:A *218:8 4.6318e-06
6 *1740:A *240:8 0
7 *1741:B *218:8 9.74132e-05
8 *1741:B *219:8 0
9 *1741:B *240:8 0
10 *216:8 *1740:B 0.000189118
11 *216:8 *1762:C 2.98648e-05
12 *216:8 *239:10 0.000141954
13 *1741:A *1741:B 7.4416e-05
14 *213:14 *216:8 5.41385e-05
*RES
1 *1738:Y *216:8 47.1971 
2 *216:8 *1740:A 38.8493 
3 *216:8 *1741:B 45.5193 
*END

*D_NET *217 0.00197113
*CONN
*I *1741:C I *D sky130_fd_sc_hd__or3_4
*I *1740:B I *D sky130_fd_sc_hd__nor2_4
*I *1762:B I *D sky130_fd_sc_hd__nor3_2
*I *1761:A2 I *D sky130_fd_sc_hd__o21a_2
*I *1739:X O *D sky130_fd_sc_hd__and2_4
*CAP
1 *1741:C 8.235e-05
2 *1740:B 0.000193517
3 *1762:B 0
4 *1761:A2 0.000238157
5 *1739:X 0
6 *217:23 0.000193517
7 *217:10 0.000417233
8 *217:4 0.000261426
9 *1740:B *1762:C 9.84851e-05
10 *1740:B *239:10 0.000141954
11 *1761:A2 *1762:C 8.26672e-05
12 *1761:A2 *1763:A 7.53384e-06
13 *1761:A2 *238:10 6.51763e-05
14 *1761:A2 *239:10 0
15 *217:10 *239:10 0
16 *217:10 *240:8 0
17 *1739:B *1741:C 0
18 *213:14 *1761:A2 0
19 *214:14 *217:10 0
20 *215:12 *217:10 0
21 *216:8 *1740:B 0.000189118
*RES
1 *1739:X *217:4 23 
2 *217:4 *217:10 17.8793 
3 *217:10 *1761:A2 42.6607 
4 *217:10 *217:23 15 
5 *217:23 *1762:B 23 
6 *217:23 *1740:B 28.3857 
7 *217:4 *1741:C 24.595 
*END

*D_NET *218 0.000574003
*CONN
*I *1742:A I *D sky130_fd_sc_hd__xor2_4
*I *1740:Y O *D sky130_fd_sc_hd__nor2_4
*CAP
1 *1742:A 0
2 *1740:Y 0.000235979
3 *218:8 0.000235979
4 *218:8 *219:8 0
5 *1740:A *218:8 4.6318e-06
6 *1741:B *218:8 9.74132e-05
*RES
1 *1740:Y *218:8 43.075 
2 *218:8 *1742:A 38 
*END

*D_NET *219 0.000745404
*CONN
*I *1751:B1 I *D sky130_fd_sc_hd__o21ai_4
*I *1741:X O *D sky130_fd_sc_hd__or3_4
*CAP
1 *1751:B1 0
2 *1741:X 0.000212542
3 *219:8 0.000212542
4 *219:8 *1764:B 9.03121e-05
5 *1741:A *219:8 0.000165629
6 *1741:B *219:8 0
7 *1742:B *219:8 6.43792e-05
8 *218:8 *219:8 0
*RES
1 *1741:X *219:8 43.4271 
2 *219:8 *1751:B1 38 
*END

*D_NET *220 0.000766286
*CONN
*I *1743:A I *D sky130_fd_sc_hd__xnor2_2
*I *2090:A I *D sky130_fd_sc_hd__buf_2
*I *1742:X O *D sky130_fd_sc_hd__xor2_4
*CAP
1 *1743:A 0.000268906
2 *2090:A 0
3 *1742:X 0.000114238
4 *220:6 0.000383143
*RES
1 *1742:X *220:6 17.2579 
2 *220:6 *2090:A 38 
3 *220:6 *1743:A 42.8886 
*END

*D_NET *221 0.00641968
*CONN
*I *1744:B I *D sky130_fd_sc_hd__or3_4
*I *1745:B1 I *D sky130_fd_sc_hd__o21ai_2
*I *1743:Y O *D sky130_fd_sc_hd__xnor2_2
*CAP
1 *1744:B 0.000423496
2 *1745:B1 0.000322671
3 *1743:Y 0
4 *221:8 0.00163376
5 *221:6 0.000887591
6 *1744:B *222:35 3.70094e-05
7 *1744:B *225:12 2.96154e-05
8 *1744:B *241:8 0.000526587
9 *1744:B *340:10 0
10 *1744:B *484:8 0
11 *1745:B1 *1746:C1 1.03955e-05
12 *1745:B1 *1817:B1 0.000247812
13 *1745:B1 *223:6 3.7122e-06
14 *1745:B1 *224:6 5.50049e-05
15 *221:8 *1764:B 0.000233291
16 *221:8 *1817:A1 8.05868e-05
17 *221:8 *225:12 5.561e-05
18 *221:8 *227:8 0.000202387
19 *221:8 *241:8 0.00137882
20 *221:8 *338:8 6.90927e-05
21 *221:8 *340:10 0
22 *1744:A *1744:B 7.44354e-05
23 *43:8 *1744:B 9.27917e-05
24 *206:16 *1744:B 5.50106e-05
*RES
1 *1743:Y *221:6 38 
2 *221:6 *221:8 24.795 
3 *221:8 *1745:B1 42.4536 
4 *221:8 *1744:B 47.715 
*END

*D_NET *222 0.00256273
*CONN
*I *1814:B I *D sky130_fd_sc_hd__and2b_2
*I *1746:B1 I *D sky130_fd_sc_hd__o211a_2
*I *1747:A2 I *D sky130_fd_sc_hd__a211o_4
*I *1744:X O *D sky130_fd_sc_hd__or3_4
*CAP
1 *1814:B 0
2 *1746:B1 0
3 *1747:A2 0.000224101
4 *1744:X 0.000235858
5 *222:35 5.82428e-05
6 *222:8 0.000401717
7 *1747:A2 *241:8 0.000218952
8 *1747:A2 *500:10 0.00030974
9 *222:8 *223:12 0
10 *222:8 *241:8 0.000406288
11 *222:35 *241:8 6.67764e-05
12 *1744:B *222:35 3.70094e-05
13 *1746:A2 *1747:A2 0.000191157
14 *1747:C1 *1747:A2 5.50049e-05
15 *43:8 *222:35 0.000168754
16 *138:8 *1747:A2 3.47781e-05
17 *204:25 *222:8 1.02387e-05
18 *205:10 *222:8 0
19 *205:26 *222:8 0.00014411
*RES
1 *1744:X *222:8 43.4271 
2 *222:8 *1747:A2 44.4421 
3 *222:8 *1746:B1 38 
4 *1744:X *222:35 40.2579 
5 *222:35 *1814:B 38 
*END

*D_NET *223 0.00135818
*CONN
*I *1746:C1 I *D sky130_fd_sc_hd__o211a_2
*I *1747:A1 I *D sky130_fd_sc_hd__a211o_4
*I *1745:Y O *D sky130_fd_sc_hd__o21ai_2
*CAP
1 *1746:C1 0.000151118
2 *1747:A1 0
3 *1745:Y 2.63778e-05
4 *223:12 0.000161624
5 *223:6 0.00033912
6 *1746:C1 *1745:A2 0.000352415
7 *1746:C1 *1817:B1 0.000125979
8 *1746:C1 *224:6 2.93747e-05
9 *223:6 *1745:A2 5.50049e-05
10 *223:12 *224:14 8.41012e-05
11 *1745:B1 *1746:C1 1.03955e-05
12 *1745:B1 *223:6 3.7122e-06
13 *1746:A1 *1746:C1 1.28818e-05
14 *1746:A1 *223:12 0
15 *119:19 *223:12 0
16 *205:10 *223:12 6.07611e-06
17 *222:8 *223:12 0
*RES
1 *1745:Y *223:6 23.6214 
2 *223:6 *223:12 32.9621 
3 *223:12 *1747:A1 23 
4 *223:6 *1746:C1 27.4536 
*END

*D_NET *224 0.00224634
*CONN
*I *1817:B1 I *D sky130_fd_sc_hd__a21o_4
*I *1748:A_N I *D sky130_fd_sc_hd__nand2b_4
*I *1746:X O *D sky130_fd_sc_hd__o211a_2
*CAP
1 *1817:B1 0.000322086
2 *1748:A_N 0
3 *1746:X 1.80505e-05
4 *224:14 0.00023792
5 *224:6 0.000578057
6 *1817:B1 *1745:A2 0.000110798
7 *224:14 *1748:B 0
8 *224:14 *226:6 5.3304e-05
9 *1659:A *224:14 5.50049e-05
10 *1745:B1 *1817:B1 0.000247812
11 *1745:B1 *224:6 5.50049e-05
12 *1746:A1 *1817:B1 1.28818e-05
13 *1746:A1 *224:14 7.55388e-05
14 *1746:C1 *1817:B1 0.000125979
15 *1746:C1 *224:6 2.93747e-05
16 *122:39 *224:14 0.000240426
17 *223:12 *224:14 8.41012e-05
*RES
1 *1746:X *224:6 23.6214 
2 *224:6 *224:14 36.0486 
3 *224:14 *1748:A_N 23 
4 *224:6 *1817:B1 29.8357 
*END

*D_NET *225 0.000686274
*CONN
*I *2085:A I *D sky130_fd_sc_hd__buf_6
*I *1817:A2 I *D sky130_fd_sc_hd__a21o_4
*I *1747:X O *D sky130_fd_sc_hd__a211o_4
*CAP
1 *2085:A 6.8612e-05
2 *1817:A2 0
3 *1747:X 0
4 *225:12 0.000113699
5 *225:4 0.000182311
6 *2085:A *500:10 5.41385e-05
7 *225:12 *1817:A1 0.000166532
8 *225:12 *500:10 1.57571e-05
9 *1744:B *225:12 2.96154e-05
10 *221:8 *225:12 5.561e-05
*RES
1 *1747:X *225:4 23 
2 *225:4 *225:12 32.8793 
3 *225:12 *1817:A2 23 
4 *225:4 *2085:A 24.595 
*END

*D_NET *226 0.000684396
*CONN
*I *1750:B I *D sky130_fd_sc_hd__xnor2_2
*I *1748:Y O *D sky130_fd_sc_hd__nand2b_4
*CAP
1 *1750:B 0
2 *1748:Y 0.000279187
3 *226:6 0.000279187
4 *1659:A *226:6 7.27182e-05
5 *224:14 *226:6 5.3304e-05
*RES
1 *1748:Y *226:6 27.9093 
2 *226:6 *1750:B 23 
*END

*D_NET *227 0.00171188
*CONN
*I *1817:A1 I *D sky130_fd_sc_hd__a21o_4
*I *1750:A I *D sky130_fd_sc_hd__xnor2_2
*I *1749:X O *D sky130_fd_sc_hd__a21o_2
*CAP
1 *1817:A1 0.000296748
2 *1750:A 0
3 *1749:X 0.000334439
4 *227:8 0.000631187
5 *1817:A1 *340:10 0
6 *227:8 *340:10 0
7 *29:11 *227:8 0
8 *221:8 *1817:A1 8.05868e-05
9 *221:8 *227:8 0.000202387
10 *225:12 *1817:A1 0.000166532
*RES
1 *1749:X *227:8 45.8921 
2 *227:8 *1750:A 38 
3 *227:8 *1817:A1 43.7793 
*END

*D_NET *228 0.00348272
*CONN
*I *1764:A I *D sky130_fd_sc_hd__xor2_2
*I *1874:A1 I *D sky130_fd_sc_hd__a21o_2
*I *1863:A1 I *D sky130_fd_sc_hd__a21oi_2
*I *1751:Y O *D sky130_fd_sc_hd__o21ai_4
*CAP
1 *1764:A 0
2 *1874:A1 0.000358377
3 *1863:A1 0.000159387
4 *1751:Y 0
5 *228:34 0.000307039
6 *228:8 0.000838263
7 *228:4 0.000627537
8 *1863:A1 *339:10 0.000190896
9 *1874:A1 *1862:A 3.2277e-05
10 *1874:A1 *1862:B 0.000147656
11 *1874:A1 *337:34 2.50118e-05
12 *1874:A1 *339:10 0.000221513
13 *228:8 *505:10 0.000188526
14 *228:34 *1764:B 0.000180998
15 *228:34 *340:10 6.63801e-05
16 *134:12 *228:8 0.000138859
*RES
1 *1751:Y *228:4 23 
2 *228:4 *228:8 20.8621 
3 *228:8 *1863:A1 41.3143 
4 *228:8 *1874:A1 45.8714 
5 *228:4 *228:34 37.8921 
6 *228:34 *1764:A 23 
*END

*D_NET *229 0.00154759
*CONN
*I *1860:A I *D sky130_fd_sc_hd__or3_2
*I *1859:A1 I *D sky130_fd_sc_hd__o21ai_2
*I *1754:B1 I *D sky130_fd_sc_hd__a21oi_2
*I *1752:X O *D sky130_fd_sc_hd__and3_2
*CAP
1 *1860:A 0
2 *1859:A1 4.48838e-05
3 *1754:B1 5.01611e-05
4 *1752:X 0.000526499
5 *229:22 4.48838e-05
6 *229:20 0.000476338
7 *1754:B1 *465:24 9.75779e-05
8 *1859:A1 *1860:B 3.26241e-05
9 *1859:A1 *1860:C 3.26241e-05
10 *229:20 *1908:A1 0
11 *229:20 *447:35 0
12 *229:20 *455:34 0
13 *229:20 *466:38 0.000152635
14 *124:10 *229:20 8.93663e-05
*RES
1 *1752:X *1754:B1 47.0979 
2 *1752:X *229:20 45.54 
3 *229:20 *229:22 15 
4 *229:22 *1859:A1 24.0979 
5 *229:22 *1860:A 23 
*END

*D_NET *230 0.00282025
*CONN
*I *1908:A1 I *D sky130_fd_sc_hd__a21o_2
*I *1858:A1 I *D sky130_fd_sc_hd__o21a_2
*I *1871:C I *D sky130_fd_sc_hd__and3_2
*I *1754:A2 I *D sky130_fd_sc_hd__a21oi_2
*I *1753:Y O *D sky130_fd_sc_hd__nand2_2
*CAP
1 *1908:A1 0.000288218
2 *1858:A1 0.000227684
3 *1871:C 0
4 *1754:A2 0
5 *1753:Y 3.27378e-05
6 *230:25 0.000227684
7 *230:23 0.000475117
8 *230:12 0.000123409
9 *230:6 0.000343047
10 *1858:A1 *333:14 2.64616e-05
11 *1858:A1 *334:10 1.41077e-05
12 *1858:A1 *449:40 9.84851e-05
13 *1858:A1 *449:48 5.25017e-05
14 *1858:A1 *466:38 0
15 *1858:A1 *466:42 1.14154e-05
16 *1858:A1 *466:52 7.88828e-05
17 *1908:A1 *334:10 7.52305e-05
18 *1908:A1 *335:8 0.000115526
19 *1908:A1 *346:8 0.000137577
20 *1908:A1 *449:40 0
21 *1908:A1 *466:38 0
22 *1908:A1 *466:52 1.05922e-05
23 *230:6 *1757:B 5.50049e-05
24 *230:12 *233:8 7.81176e-05
25 *230:12 *233:23 1.83667e-05
26 *230:12 *465:24 0.000194309
27 *230:12 *466:12 0
28 *230:23 *1757:B 8.60475e-05
29 *230:23 *233:23 0
30 *230:23 *448:34 1.03836e-05
31 *230:23 *449:48 3.04021e-05
32 *230:23 *449:50 2.76611e-06
33 *230:23 *466:38 0
34 *207:10 *230:23 6.17437e-06
35 *229:20 *1908:A1 0
*RES
1 *1753:Y *230:6 23.6214 
2 *230:6 *230:12 33.3143 
3 *230:12 *1754:A2 23 
4 *230:6 *230:23 18.48 
5 *230:23 *230:25 15 
6 *230:25 *1871:C 23 
7 *230:25 *1858:A1 27.93 
8 *230:23 *1908:A1 43.4271 
*END

*D_NET *231 0.000723286
*CONN
*I *1756:C I *D sky130_fd_sc_hd__and3_2
*I *1755:B1 I *D sky130_fd_sc_hd__a21oi_2
*I *1754:Y O *D sky130_fd_sc_hd__a21oi_2
*CAP
1 *1756:C 0.000180494
2 *1755:B1 0
3 *1754:Y 0
4 *231:12 0.000162156
5 *231:4 0.00034265
6 *1756:C *465:24 2.4754e-05
7 *231:12 *232:8 0
8 *231:12 *466:12 0
9 *231:12 *466:38 0
10 *1754:A1 *1756:C 1.32314e-05
*RES
1 *1754:Y *231:4 23 
2 *231:4 *231:12 32.5271 
3 *231:12 *1755:B1 23 
4 *231:4 *1756:C 26.5007 
*END

*D_NET *232 0.0007919
*CONN
*I *1757:A I *D sky130_fd_sc_hd__nor2_2
*I *1755:Y O *D sky130_fd_sc_hd__a21oi_2
*CAP
1 *1757:A 0
2 *1755:Y 0.000200278
3 *232:8 0.000200278
4 *232:8 *449:50 7.70737e-05
5 *232:8 *449:56 0.000116314
6 *232:8 *466:12 0
7 *232:8 *466:38 9.27917e-05
8 *207:10 *232:8 0.000105165
9 *231:12 *232:8 0
*RES
1 *1755:Y *232:8 43.075 
2 *232:8 *1757:A 38 
*END

*D_NET *233 0.002649
*CONN
*I *1859:A2 I *D sky130_fd_sc_hd__o21ai_2
*I *1860:B I *D sky130_fd_sc_hd__or3_2
*I *1757:B I *D sky130_fd_sc_hd__nor2_2
*I *1756:X O *D sky130_fd_sc_hd__and3_2
*CAP
1 *1859:A2 1.83048e-05
2 *1860:B 0.00014339
3 *1757:B 6.2654e-05
4 *1756:X 9.88603e-05
5 *233:23 0.000523991
6 *233:8 0.000523811
7 *1757:B *448:34 2.32101e-05
8 *1757:B *465:24 0.000137651
9 *1859:A2 *1860:C 1.45632e-05
10 *1860:B *1860:C 1.76213e-05
11 *233:8 *448:34 6.16531e-05
12 *233:8 *466:12 6.07611e-06
13 *233:23 *1860:C 0.000163285
14 *233:23 *332:10 0.000141294
15 *233:23 *333:14 2.6977e-05
16 *233:23 *448:28 9.30478e-05
17 *233:23 *449:40 0.000302164
18 *233:23 *466:52 2.02872e-05
19 *1859:A1 *1860:B 3.26241e-05
20 *230:6 *1757:B 5.50049e-05
21 *230:12 *233:8 7.81176e-05
22 *230:12 *233:23 1.83667e-05
23 *230:23 *1757:B 8.60475e-05
24 *230:23 *233:23 0
*RES
1 *1756:X *233:8 40.2579 
2 *233:8 *1757:B 40.0507 
3 *233:8 *233:23 23.9071 
4 *233:23 *1860:B 25.4236 
5 *233:23 *1859:A2 23.4971 
*END

*D_NET *234 0.00529504
*CONN
*I *1759:C I *D sky130_fd_sc_hd__nor3_2
*I *1758:B1 I *D sky130_fd_sc_hd__o21a_2
*I *1757:Y O *D sky130_fd_sc_hd__nor2_2
*CAP
1 *1759:C 0.000216169
2 *1758:B1 2.53773e-05
3 *1757:Y 0.000964231
4 *234:30 0.000654455
5 *234:22 0.00137714
6 *1759:C *235:10 0.000307645
7 *234:22 *1729:A 0.000302441
8 *234:22 *1729:B 0.000176789
9 *234:22 *448:34 1.46594e-05
10 *234:22 *448:49 9.62764e-05
11 *234:30 *235:14 0
12 *1651:A1 *234:30 0
13 *1734:B *234:30 3.83778e-05
14 *1736:A *234:22 9.31996e-05
15 *1736:A *234:30 0
16 *1736:B *234:30 0
17 *1759:A *1758:B1 5.50106e-05
18 *1759:A *1759:C 2.3127e-05
19 *2086:A *234:30 6.4393e-05
20 *124:10 *234:22 9.84851e-05
21 *124:34 *234:22 0.000333383
22 *124:53 *234:22 0.000136738
23 *125:12 *234:30 0
24 *126:10 *234:30 0
25 *127:23 *234:22 5.50049e-05
26 *127:23 *234:30 3.47781e-05
27 *129:10 *234:22 5.67058e-05
28 *207:10 *234:22 2.79543e-05
29 *208:10 *234:22 0.000142701
30 *212:10 *234:30 0
*RES
1 *1757:Y *234:22 44.6464 
2 *234:22 *234:30 37.105 
3 *234:30 *1758:B1 23.6214 
4 *234:30 *1759:C 27.9507 
*END

*D_NET *235 0.00437147
*CONN
*I *1760:A I *D sky130_fd_sc_hd__nor2_2
*I *1862:A I *D sky130_fd_sc_hd__xnor2_2
*I *1875:A1 I *D sky130_fd_sc_hd__o21a_4
*I *1873:A1 I *D sky130_fd_sc_hd__a21o_2
*I *1758:X O *D sky130_fd_sc_hd__o21a_2
*CAP
1 *1760:A 6.36349e-05
2 *1862:A 0.000309016
3 *1875:A1 0
4 *1873:A1 0.000192254
5 *1758:X 0.000170489
6 *235:25 0.000351451
7 *235:14 0.000960311
8 *235:10 0.000959747
9 *1760:A *1760:B 0.000185434
10 *1862:A *1862:B 7.50355e-05
11 *1862:A *337:16 3.2865e-05
12 *1862:A *337:34 0.000100486
13 *1862:A *348:10 0.000113398
14 *1873:A1 *1873:A2 0.000275411
15 *235:10 *1759:B 8.27644e-05
16 *235:10 *1760:B 5.50049e-05
17 *235:14 *237:10 0
18 *235:14 *238:10 0
19 *235:25 *337:16 5.75756e-06
20 *1736:B *235:14 0
21 *1759:A *235:10 9.84851e-05
22 *1759:C *235:10 0.000307645
23 *1874:A1 *1862:A 3.2277e-05
24 *212:10 *235:14 0
25 *234:30 *235:14 0
*RES
1 *1758:X *235:10 28.5514 
2 *235:10 *235:14 28.1743 
3 *235:14 *1873:A1 41.0036 
4 *235:14 *235:25 0.849286 
5 *235:25 *1875:A1 38 
6 *235:25 *1862:A 44.9393 
7 *235:10 *1760:A 25.0507 
*END

*D_NET *236 0.000628176
*CONN
*I *1760:B I *D sky130_fd_sc_hd__nor2_2
*I *1759:Y O *D sky130_fd_sc_hd__nor3_2
*CAP
1 *1760:B 0.000193869
2 *1759:Y 0.000193869
3 *1760:A *1760:B 0.000185434
4 *235:10 *1760:B 5.50049e-05
*RES
1 *1759:Y *1760:B 49.9771 
*END

*D_NET *237 0.00117177
*CONN
*I *1762:C I *D sky130_fd_sc_hd__nor3_2
*I *1761:B1 I *D sky130_fd_sc_hd__o21a_2
*I *1760:Y O *D sky130_fd_sc_hd__nor2_2
*CAP
1 *1762:C 0.000181276
2 *1761:B1 0
3 *1760:Y 0.000260793
4 *237:10 0.000442069
5 *1762:C *239:10 0
6 *237:10 *239:10 0
7 *1740:B *1762:C 9.84851e-05
8 *1761:A2 *1762:C 8.26672e-05
9 *213:14 *1762:C 6.46393e-05
10 *213:14 *237:10 1.19796e-05
11 *216:8 *1762:C 2.98648e-05
12 *235:14 *237:10 0
*RES
1 *1760:Y *237:10 41.8321 
2 *237:10 *1761:B1 38 
3 *237:10 *1762:C 42.6607 
*END

*D_NET *238 0.00256052
*CONN
*I *1763:A I *D sky130_fd_sc_hd__nor2_2
*I *1873:B1 I *D sky130_fd_sc_hd__a21o_2
*I *1863:B1 I *D sky130_fd_sc_hd__a21oi_2
*I *1761:X O *D sky130_fd_sc_hd__o21a_2
*CAP
1 *1763:A 0.000152884
2 *1873:B1 0.000158568
3 *1863:B1 6.68926e-05
4 *1761:X 0
5 *238:10 0.000842289
6 *238:4 0.000769712
7 *1761:A2 *1763:A 7.53384e-06
8 *1761:A2 *238:10 6.51763e-05
9 *129:23 *1863:B1 7.95762e-05
10 *213:6 *238:10 0.00014196
11 *213:14 *238:10 8.1606e-05
12 *214:14 *238:10 0.000194318
13 *235:14 *238:10 0
*RES
1 *1761:X *238:4 23 
2 *238:4 *238:10 28.2571 
3 *238:10 *1863:B1 39.5743 
4 *238:10 *1873:B1 40.61 
5 *238:4 *1763:A 26.0243 
*END

*D_NET *239 0.000883146
*CONN
*I *1763:B I *D sky130_fd_sc_hd__nor2_2
*I *1762:Y O *D sky130_fd_sc_hd__nor3_2
*CAP
1 *1763:B 0
2 *1762:Y 0.000188567
3 *239:10 0.000188567
4 *239:10 *240:8 0.000222104
5 *1740:B *239:10 0.000141954
6 *1761:A2 *239:10 0
7 *1762:C *239:10 0
8 *216:8 *239:10 0.000141954
9 *217:10 *239:10 0
10 *237:10 *239:10 0
*RES
1 *1762:Y *239:10 43.2407 
2 *239:10 *1763:B 38 
*END

*D_NET *240 0.00305288
*CONN
*I *1764:B I *D sky130_fd_sc_hd__xor2_2
*I *1863:A2 I *D sky130_fd_sc_hd__a21oi_2
*I *1763:Y O *D sky130_fd_sc_hd__nor2_2
*CAP
1 *1764:B 0.000433854
2 *1863:A2 0.000135841
3 *1763:Y 0.000376942
4 *240:8 0.000946637
5 *1764:B *340:10 0
6 *1740:A *240:8 0
7 *1741:A *240:8 0.000191202
8 *1741:B *240:8 0
9 *1742:B *1764:B 1.0092e-05
10 *1742:B *240:8 5.19959e-05
11 *129:23 *1863:A2 0.000179613
12 *217:10 *240:8 0
13 *219:8 *1764:B 9.03121e-05
14 *221:8 *1764:B 0.000233291
15 *228:34 *1764:B 0.000180998
16 *239:10 *240:8 0.000222104
*RES
1 *1763:Y *240:8 46.2443 
2 *240:8 *1863:A2 41.48 
3 *240:8 *1764:B 26.4136 
*END

*D_NET *241 0.00719682
*CONN
*I *1819:A1 I *D sky130_fd_sc_hd__a21o_2
*I *1813:A I *D sky130_fd_sc_hd__xnor2_2
*I *1764:X O *D sky130_fd_sc_hd__xor2_2
*CAP
1 *1819:A1 0.000295153
2 *1813:A 0.000145936
3 *1764:X 0
4 *241:8 0.00168683
5 *241:6 0.00124574
6 *1813:A *294:31 9.67842e-05
7 *1813:A *502:8 1.5769e-05
8 *1819:A1 *1813:B 0.000158229
9 *1819:A1 *1815:B 0
10 *1819:A1 *1819:A2 0.000222123
11 *1819:A1 *1906:A1 4.9662e-05
12 *1819:A1 *2091:A 0
13 *1819:A1 *292:8 0
14 *1819:A1 *295:10 2.76611e-06
15 *1819:A1 *340:10 0
16 *1819:A1 *344:20 0
17 *1819:A1 *381:8 0
18 *241:8 *1813:B 6.16531e-05
19 *241:8 *294:31 0.000157185
20 *241:8 *345:8 0
21 *1744:B *241:8 0.000526587
22 *1747:A2 *241:8 0.000218952
23 *1814:A_N *241:8 9.74235e-05
24 *43:8 *241:8 5.5274e-05
25 *122:39 *241:8 0
26 *137:29 *241:8 0
27 *138:8 *241:8 5.87192e-05
28 *149:10 *241:8 7.45278e-05
29 *153:10 *241:8 0
30 *159:8 *241:8 0.000163352
31 *204:14 *241:8 0
32 *205:26 *241:8 1.22803e-05
33 *221:8 *241:8 0.00137882
34 *222:8 *241:8 0.000406288
35 *222:35 *241:8 6.67764e-05
*RES
1 *1764:X *241:6 38 
2 *241:6 *241:8 34.3029 
3 *241:8 *1813:A 40.4236 
4 *241:8 *1819:A1 44.525 
*END

*D_NET *242 0.00195876
*CONN
*I *1796:A I *D sky130_fd_sc_hd__xnor2_2
*I *1820:A1 I *D sky130_fd_sc_hd__a21o_2
*I *1765:X O *D sky130_fd_sc_hd__a21bo_2
*CAP
1 *1796:A 0.00012247
2 *1820:A1 7.3387e-05
3 *1765:X 0.000468257
4 *242:10 0.000195857
5 *242:8 0.000468257
6 *1796:A *1820:A2 4.2573e-05
7 *1820:A1 *1820:A2 5.3304e-05
8 *242:8 *1795:B 0.00014065
9 *242:8 *256:20 0.0002499
10 *1707:B *242:8 0
11 *1821:A2 *242:8 0
12 *183:15 *242:8 0
13 *185:8 *242:8 0.00014411
*RES
1 *1765:X *242:8 49.4136 
2 *242:8 *242:10 15 
3 *242:10 *1820:A1 24.0979 
4 *242:10 *1796:A 25.0714 
*END

*D_NET *243 0.00470031
*CONN
*I *1888:A1 I *D sky130_fd_sc_hd__a211o_4
*I *1831:A1 I *D sky130_fd_sc_hd__a21o_2
*I *1779:A I *D sky130_fd_sc_hd__xnor2_2
*I *1766:X O *D sky130_fd_sc_hd__a21bo_4
*CAP
1 *1888:A1 0.000441185
2 *1831:A1 0.000104808
3 *1779:A 0
4 *1766:X 0.000516114
5 *243:23 0.000732593
6 *243:14 0.000316988
7 *243:10 0.000646502
8 *1831:A1 *1831:B1 1.59094e-05
9 *1888:A1 *1831:A2 2.68751e-05
10 *1888:A1 *1888:C1 0.000552918
11 *1888:A1 *254:12 2.24048e-05
12 *243:10 *253:10 0.000351626
13 *243:10 *444:52 0
14 *243:10 *444:67 0
15 *243:14 *1777:B 1.47563e-05
16 *243:14 *253:10 1.47563e-05
17 *243:14 *255:8 0.000171906
18 *243:23 *1831:A2 0.000357921
19 *243:23 *255:8 2.77955e-05
20 *1693:A1 *243:10 0.000141879
21 *1693:B1 *243:10 0.000167452
22 *1776:B *243:10 0
23 *168:21 *243:10 0
24 *170:14 *243:10 2.02872e-05
25 *170:29 *243:10 5.56356e-05
26 *171:10 *243:10 0
*RES
1 *1766:X *243:10 49.8071 
2 *243:10 *243:14 3.58357 
3 *243:14 *1779:A 38 
4 *243:14 *243:23 5.075 
5 *243:23 *1831:A1 39.0979 
6 *243:23 *1888:A1 48.2743 
*END

*D_NET *244 0.00323743
*CONN
*I *1775:A I *D sky130_fd_sc_hd__xnor2_2
*I *1774:A I *D sky130_fd_sc_hd__and2_2
*I *1767:Y O *D sky130_fd_sc_hd__nand2_2
*CAP
1 *1775:A 0.000165458
2 *1774:A 3.6497e-05
3 *1767:Y 0.000181026
4 *244:10 0.000587924
5 *244:8 0.000566996
6 *1774:A *247:10 2.64616e-05
7 *1775:A *248:8 0.000240695
8 *1775:A *250:6 9.67842e-05
9 *1775:A *250:14 0.00011218
10 *244:10 *1771:B1 0.000277705
11 *244:10 *1778:A 0
12 *244:10 *247:10 7.48331e-05
13 *244:10 *248:8 0.000378474
14 *244:10 *250:14 4.6318e-06
15 *244:10 *439:81 0.000204961
16 *244:10 *439:96 6.7177e-06
17 *1767:A *244:8 9.58714e-05
18 *1776:A *244:10 0
19 *1776:B *244:10 0
20 *2093:A *244:8 0.000180218
21 *161:10 *244:10 0
*RES
1 *1767:Y *244:8 41.48 
2 *244:8 *244:10 11.0614 
3 *244:10 *1774:A 38.6214 
4 *244:10 *1775:A 42.8886 
*END

*D_NET *245 0.00208095
*CONN
*I *1835:A I *D sky130_fd_sc_hd__nor2_2
*I *1770:B1 I *D sky130_fd_sc_hd__a21oi_2
*I *1768:X O *D sky130_fd_sc_hd__and4_2
*CAP
1 *1835:A 0.000114102
2 *1770:B1 0.000156272
3 *1768:X 9.29119e-05
4 *245:8 0.000363286
5 *1770:B1 *1770:A2 1.32314e-05
6 *1770:B1 *485:8 5.3304e-05
7 *1835:A *1833:A 2.64616e-05
8 *1835:A *1835:B 5.3304e-05
9 *1835:A *440:86 0.000182873
10 *1835:A *440:99 6.25829e-05
11 *1835:A *485:10 3.47781e-05
12 *1835:A *485:69 0.000209748
13 *245:8 *440:86 0.000360161
14 *245:8 *485:10 0.00035793
*RES
1 *1768:X *245:8 42.7229 
2 *245:8 *1770:B1 40.5271 
3 *245:8 *1835:A 41.9357 
*END

*D_NET *246 0.00201982
*CONN
*I *1885:C I *D sky130_fd_sc_hd__and3_2
*I *1770:A2 I *D sky130_fd_sc_hd__a21oi_2
*I *1769:Y O *D sky130_fd_sc_hd__nand2_2
*CAP
1 *1885:C 0.00012698
2 *1770:A2 0.000303942
3 *1769:Y 7.9026e-05
4 *246:8 0.000509948
5 *1770:A2 *309:8 0.000163352
6 *1770:A2 *441:61 6.36037e-05
7 *1770:A2 *485:80 7.90714e-05
8 *1770:A2 *485:103 3.6625e-05
9 *1770:A2 *495:18 1.89075e-05
10 *1770:A2 *495:20 9.98891e-05
11 *1885:C *1834:A 2.71291e-05
12 *1885:C *308:8 1.22803e-05
13 *1885:C *309:8 0.000136486
14 *1885:C *309:18 1.7387e-05
15 *1885:C *311:18 1.83667e-05
16 *1885:C *485:103 0.000151898
17 *246:8 *1769:A 9.91798e-05
18 *246:8 *1832:A2 1.5769e-05
19 *246:8 *495:18 4.67488e-05
20 *1770:B1 *1770:A2 1.32314e-05
*RES
1 *1769:Y *246:8 40.0507 
2 *246:8 *1770:A2 45.2604 
3 *246:8 *1885:C 41.3143 
*END

*D_NET *247 0.00139966
*CONN
*I *1772:C I *D sky130_fd_sc_hd__and3_2
*I *1771:B1 I *D sky130_fd_sc_hd__a21oi_2
*I *1770:Y O *D sky130_fd_sc_hd__a21oi_2
*CAP
1 *1772:C 0
2 *1771:B1 0.000126949
3 *1770:Y 0.000292925
4 *247:10 0.000419874
5 *1771:B1 *1778:A 0
6 *1771:B1 *439:96 0.000180915
7 *247:10 *1778:A 0
8 *1774:A *247:10 2.64616e-05
9 *244:10 *1771:B1 0.000277705
10 *244:10 *247:10 7.48331e-05
*RES
1 *1770:Y *247:10 41.7286 
2 *247:10 *1771:B1 42.2879 
3 *247:10 *1772:C 38 
*END

*D_NET *248 0.00133197
*CONN
*I *1773:A I *D sky130_fd_sc_hd__nor2_2
*I *1771:Y O *D sky130_fd_sc_hd__a21oi_2
*CAP
1 *1773:A 0
2 *1771:Y 0.000221014
3 *248:8 0.000221014
4 *248:8 *249:10 0.000189173
5 *1775:A *248:8 0.000240695
6 *161:10 *248:8 8.15957e-05
7 *244:10 *248:8 0.000378474
*RES
1 *1771:Y *248:8 46.2443 
2 *248:8 *1773:A 38 
*END

*D_NET *249 0.00214222
*CONN
*I *1835:B I *D sky130_fd_sc_hd__nor2_2
*I *1773:B I *D sky130_fd_sc_hd__nor2_2
*I *1772:X O *D sky130_fd_sc_hd__and3_2
*CAP
1 *1835:B 0.0004017
2 *1773:B 0
3 *1772:X 0.00025485
4 *249:12 0.0004017
5 *249:10 0.00025485
6 *1835:B *1833:C 5.3304e-05
7 *1835:B *1833:D 0.000139352
8 *1835:B *250:6 5.41288e-05
9 *1835:B *485:69 5.3304e-05
10 *1835:B *485:80 5.3304e-05
11 *249:10 *1772:B 1.04148e-05
12 *249:10 *495:18 2.76611e-06
13 *249:10 *495:20 7.91206e-05
14 *1835:A *1835:B 5.3304e-05
15 *161:10 *249:10 0.000140949
16 *248:8 *249:10 0.000189173
*RES
1 *1772:X *249:10 44.1729 
2 *249:10 *249:12 15 
3 *249:12 *1773:B 23 
4 *249:12 *1835:B 30.3329 
*END

*D_NET *250 0.000994976
*CONN
*I *1775:B I *D sky130_fd_sc_hd__xnor2_2
*I *1774:B I *D sky130_fd_sc_hd__and2_2
*I *1773:Y O *D sky130_fd_sc_hd__nor2_2
*CAP
1 *1775:B 0
2 *1774:B 0
3 *1773:Y 0.000196581
4 *250:14 0.000167045
5 *250:6 0.000363626
6 *250:14 *251:10 0
7 *250:14 *252:8 0
8 *1775:A *250:6 9.67842e-05
9 *1775:A *250:14 0.00011218
10 *1835:B *250:6 5.41288e-05
11 *244:10 *250:14 4.6318e-06
*RES
1 *1773:Y *250:6 26.48 
2 *250:6 *250:14 33.5836 
3 *250:14 *1774:B 23 
4 *250:6 *1775:B 23 
*END

*D_NET *251 0.00227576
*CONN
*I *1838:A I *D sky130_fd_sc_hd__and2_2
*I *1889:A1 I *D sky130_fd_sc_hd__o21a_4
*I *1839:A I *D sky130_fd_sc_hd__xor2_2
*I *1774:X O *D sky130_fd_sc_hd__and2_2
*CAP
1 *1838:A 0.000290001
2 *1889:A1 0
3 *1839:A 0
4 *1774:X 0.000474338
5 *251:19 0.000418942
6 *251:10 0.000603279
7 *1838:A *1838:B 0.000188893
8 *1838:A *1887:A 0
9 *1838:A *313:21 0.000101564
10 *1838:A *314:10 0
11 *1838:A *315:8 0
12 *1838:A *361:10 3.71369e-05
13 *1838:A *363:8 7.03869e-05
14 *251:10 *252:8 0
15 *251:10 *485:103 0
16 *251:19 *1839:B 8.51432e-05
17 *251:19 *313:21 6.07611e-06
18 *251:19 *315:8 0
19 *250:14 *251:10 0
*RES
1 *1774:X *251:10 46.5136 
2 *251:10 *1839:A 38 
3 *251:10 *251:19 2.61 
4 *251:19 *1889:A1 38 
5 *251:19 *1838:A 44.8771 
*END

*D_NET *252 0.000647876
*CONN
*I *1777:A I *D sky130_fd_sc_hd__nor2_2
*I *1778:A I *D sky130_fd_sc_hd__xor2_2
*I *1775:Y O *D sky130_fd_sc_hd__xnor2_2
*CAP
1 *1777:A 0
2 *1778:A 0.000171286
3 *1775:Y 0.000152652
4 *252:8 0.000323938
5 *1778:A *1777:B 0
6 *1778:A *253:10 0
7 *1778:A *439:96 0
8 *1771:B1 *1778:A 0
9 *244:10 *1778:A 0
10 *247:10 *1778:A 0
11 *250:14 *252:8 0
12 *251:10 *252:8 0
*RES
1 *1775:Y *252:8 40.9621 
2 *252:8 *1778:A 41.2314 
3 *252:8 *1777:A 38 
*END

*D_NET *253 0.00193189
*CONN
*I *1777:B I *D sky130_fd_sc_hd__nor2_2
*I *1778:B I *D sky130_fd_sc_hd__xor2_2
*I *1776:X O *D sky130_fd_sc_hd__and2_2
*CAP
1 *1777:B 0.000161255
2 *1778:B 0
3 *1776:X 0.000489926
4 *253:10 0.000651181
5 *1777:B *254:12 7.87147e-05
6 *1777:B *255:8 0.000169674
7 *1778:A *1777:B 0
8 *1778:A *253:10 0
9 *243:10 *253:10 0.000351626
10 *243:14 *1777:B 1.47563e-05
11 *243:14 *253:10 1.47563e-05
*RES
1 *1776:X *253:10 45.6021 
2 *253:10 *1778:B 15 
3 *253:10 *1777:B 42.1843 
*END

*D_NET *254 0.0031618
*CONN
*I *1888:C1 I *D sky130_fd_sc_hd__a211o_4
*I *1831:B1 I *D sky130_fd_sc_hd__a21o_2
*I *1777:Y O *D sky130_fd_sc_hd__nor2_2
*CAP
1 *1888:C1 0.000313753
2 *1831:B1 0.000110337
3 *1777:Y 0.000326866
4 *254:12 0.000750955
5 *1831:B1 *307:10 5.40241e-05
6 *1888:C1 *1888:A2 7.87147e-05
7 *1888:C1 *307:10 0.00035793
8 *1888:C1 *363:8 0
9 *1888:C1 *506:6 0.000144494
10 *254:12 *1831:A2 0.000354778
11 *1777:B *254:12 7.87147e-05
12 *1831:A1 *1831:B1 1.59094e-05
13 *1888:A1 *1888:C1 0.000552918
14 *1888:A1 *254:12 2.24048e-05
*RES
1 *1777:Y *254:12 45.6229 
2 *254:12 *1831:B1 40.2164 
3 *254:12 *1888:C1 48.9371 
*END

*D_NET *255 0.00144039
*CONN
*I *1831:A2 I *D sky130_fd_sc_hd__a21o_2
*I *1779:B I *D sky130_fd_sc_hd__xnor2_2
*I *1778:X O *D sky130_fd_sc_hd__xor2_2
*CAP
1 *1831:A2 0.000108992
2 *1779:B 0
3 *1778:X 5.67275e-05
4 *255:8 0.00016572
5 *1777:B *255:8 0.000169674
6 *1888:A1 *1831:A2 2.68751e-05
7 *243:14 *255:8 0.000171906
8 *243:23 *1831:A2 0.000357921
9 *243:23 *255:8 2.77955e-05
10 *254:12 *1831:A2 0.000354778
*RES
1 *1778:X *255:8 40.61 
2 *255:8 *1779:B 38 
3 *255:8 *1831:A2 43.075 
*END

*D_NET *256 0.00518594
*CONN
*I *1794:A I *D sky130_fd_sc_hd__nor2_2
*I *1795:A I *D sky130_fd_sc_hd__xor2_2
*I *1779:Y O *D sky130_fd_sc_hd__xnor2_2
*CAP
1 *1794:A 0.000113857
2 *1795:A 0
3 *1779:Y 0.00163787
4 *256:20 0.00021971
5 *256:14 0.00197143
6 *1794:A *1794:B 3.52912e-05
7 *1794:A *271:10 4.38084e-05
8 *256:14 *1700:A2 2.53321e-05
9 *256:14 *271:10 4.57742e-05
10 *256:14 *297:10 9.5877e-05
11 *256:20 *1795:B 3.96156e-05
12 *256:20 *269:10 0
13 *256:20 *271:10 9.20311e-06
14 *256:20 *296:14 9.39159e-05
15 *1700:B1 *256:14 2.18506e-05
16 *1700:B2 *256:14 0.000123089
17 *1821:A2 *256:14 0.000155566
18 *83:20 *256:14 3.71369e-05
19 *178:8 *256:14 0.000225399
20 *178:23 *256:14 1.40958e-05
21 *181:10 *256:14 2.72245e-05
22 *242:8 *256:20 0.0002499
*RES
1 *1779:Y *256:14 48.4786 
2 *256:14 *256:20 35.7793 
3 *256:20 *1795:A 23 
4 *256:14 *1794:A 25.5479 
*END

*D_NET *257 0.00323346
*CONN
*I *1786:A I *D sky130_fd_sc_hd__nand2_2
*I *1787:A I *D sky130_fd_sc_hd__xnor2_2
*I *1780:Y O *D sky130_fd_sc_hd__nand2_2
*CAP
1 *1786:A 0.000134564
2 *1787:A 0
3 *1780:Y 0.000383486
4 *257:10 0.000717289
5 *257:8 0.000966212
6 *1786:A *1786:B 0.000185095
7 *1786:A *1842:B 2.93845e-05
8 *1786:A *2094:A 0
9 *1786:A *297:10 0
10 *257:8 *443:112 5.3304e-05
11 *257:8 *443:126 0.0001131
12 *257:10 *1786:B 3.92407e-05
13 *257:10 *1789:A 0
14 *257:10 *262:8 0.000199701
15 *257:10 *264:8 0
16 *257:10 *297:10 0
17 *257:10 *443:112 9.48381e-06
18 *257:10 *514:33 0
19 *1701:C *257:8 3.53115e-05
20 *1702:C *257:8 2.47815e-05
21 *1780:B *257:8 0.000141052
22 *83:20 *257:10 5.01247e-05
23 *174:14 *257:10 1.19796e-05
24 *178:23 *257:8 0.000139352
25 *181:10 *257:10 0
26 *184:31 *257:10 0
*RES
1 *1780:Y *257:8 45.7679 
2 *257:8 *257:10 12.1179 
3 *257:10 *1787:A 38 
4 *257:10 *1786:A 41.2314 
*END

*D_NET *258 0.00101751
*CONN
*I *1783:B1 I *D sky130_fd_sc_hd__a21o_2
*I *1826:B1_N I *D sky130_fd_sc_hd__o21bai_2
*I *1781:X O *D sky130_fd_sc_hd__and4_2
*CAP
1 *1783:B1 0.000112994
2 *1826:B1_N 3.09382e-05
3 *1781:X 0.000130497
4 *258:10 0.000274429
5 *1783:B1 *1781:C 0.000243847
6 *1783:B1 *445:73 0
7 *1826:B1_N *1842:B 2.93845e-05
8 *258:10 *1697:A 5.67058e-05
9 *258:10 *1781:C 0.000138718
10 *258:10 *261:12 0
*RES
1 *1781:X *258:10 40.5271 
2 *258:10 *1826:B1_N 38.6214 
3 *258:10 *1783:B1 41.3143 
*END

*D_NET *259 0.0023699
*CONN
*I *1911:A1 I *D sky130_fd_sc_hd__a21o_2
*I *1879:C I *D sky130_fd_sc_hd__and3_2
*I *1783:A2 I *D sky130_fd_sc_hd__a21o_2
*I *1825:A1 I *D sky130_fd_sc_hd__o21a_2
*I *1782:Y O *D sky130_fd_sc_hd__nand2_2
*CAP
1 *1911:A1 0.000151198
2 *1879:C 0
3 *1783:A2 0
4 *1825:A1 0
5 *1782:Y 3.94228e-05
6 *259:34 0.000518668
7 *259:17 9.48665e-05
8 *259:6 0.000501759
9 *1911:A1 *1911:A2 9.84794e-05
10 *1911:A1 *354:10 8.62783e-05
11 *1911:A1 *385:8 1.76557e-05
12 *1911:A1 *514:70 0
13 *259:6 *1782:B 1.24376e-05
14 *259:6 *512:33 5.3304e-05
15 *259:17 *1781:C 1.83564e-05
16 *259:17 *444:76 4.14048e-05
17 *259:17 *506:10 1.01436e-05
18 *259:17 *512:33 4.85126e-05
19 *259:17 *512:50 6.16439e-05
20 *259:34 *1825:B1 5.67058e-05
21 *259:34 *301:8 0.000119313
22 *259:34 *301:21 1.32314e-05
23 *259:34 *354:10 1.14452e-05
24 *259:34 *445:73 0.000218943
25 *259:34 *512:33 8.43466e-05
26 *259:34 *514:10 5.61714e-05
27 *259:34 *514:14 5.561e-05
*RES
1 *1782:Y *259:6 23.6214 
2 *259:6 *1825:A1 23 
3 *259:6 *259:17 32.2579 
4 *259:17 *1783:A2 23 
5 *259:6 *259:34 24.3629 
6 *259:34 *1879:C 38 
7 *259:34 *1911:A1 40.7757 
*END

*D_NET *260 0.00177149
*CONN
*I *1826:A1 I *D sky130_fd_sc_hd__o21bai_2
*I *1785:A I *D sky130_fd_sc_hd__xor2_2
*I *1783:X O *D sky130_fd_sc_hd__a21o_2
*CAP
1 *1826:A1 0
2 *1785:A 0.000177785
3 *1783:X 0.000313514
4 *260:10 0.000491298
5 *1785:A *261:12 6.08043e-05
6 *1785:A *445:73 9.28842e-05
7 *1785:A *512:68 1.37246e-05
8 *1785:A *514:14 0.000379422
9 *260:10 *445:73 7.55491e-05
10 *260:10 *514:14 0.000166513
*RES
1 *1783:X *260:10 43.2614 
2 *260:10 *1785:A 43.4271 
3 *260:10 *1826:A1 38 
*END

*D_NET *261 0.00111919
*CONN
*I *1785:B I *D sky130_fd_sc_hd__xor2_2
*I *1826:A2 I *D sky130_fd_sc_hd__o21bai_2
*I *1784:Y O *D sky130_fd_sc_hd__nand2_2
*CAP
1 *1785:B 5.35811e-05
2 *1826:A2 0
3 *1784:Y 2.32824e-05
4 *261:12 0.000280006
5 *261:6 0.00035687
6 *1785:B *1784:B 9.84851e-05
7 *261:6 *1784:B 5.50049e-05
8 *261:12 *445:51 0
9 *261:12 *445:73 0.000191157
10 *1785:A *261:12 6.08043e-05
11 *175:10 *261:12 0
12 *258:10 *261:12 0
*RES
1 *1784:Y *261:6 23.6214 
2 *261:6 *261:12 35.4271 
3 *261:12 *1826:A2 23 
4 *261:6 *1785:B 1.58464 
*END

*D_NET *262 0.000840743
*CONN
*I *1786:B I *D sky130_fd_sc_hd__nand2_2
*I *1787:B I *D sky130_fd_sc_hd__xnor2_2
*I *1785:X O *D sky130_fd_sc_hd__xor2_2
*CAP
1 *1786:B 0.000108759
2 *1787:B 0
3 *1785:X 9.95942e-05
4 *262:8 0.000208353
5 *1786:B *514:14 0
6 *262:8 *512:68 0
7 *262:8 *514:33 0
8 *1786:A *1786:B 0.000185095
9 *257:10 *1786:B 3.92407e-05
10 *257:10 *262:8 0.000199701
*RES
1 *1785:X *262:8 40.61 
2 *262:8 *1787:B 38 
3 *262:8 *1786:B 40.9621 
*END

*D_NET *263 0.000848442
*CONN
*I *1881:A1 I *D sky130_fd_sc_hd__a21oi_2
*I *1829:A I *D sky130_fd_sc_hd__xnor2_2
*I *1786:Y O *D sky130_fd_sc_hd__nand2_2
*CAP
1 *1881:A1 0
2 *1829:A 0
3 *1786:Y 0.000118237
4 *263:14 0.000158998
5 *263:8 0.000277235
6 *263:8 *1842:B 7.06229e-05
7 *263:8 *1881:B1 5.50049e-05
8 *263:8 *2094:A 0
9 *263:8 *356:10 5.50106e-05
10 *263:14 *1881:B1 1.34354e-05
11 *263:14 *305:8 0
12 *263:14 *356:10 9.98995e-05
*RES
1 *1786:Y *263:8 26.0243 
2 *263:8 *263:14 33.3143 
3 *263:14 *1829:A 23 
4 *263:8 *1881:A1 23 
*END

*D_NET *264 0.000712824
*CONN
*I *1790:A I *D sky130_fd_sc_hd__and2_2
*I *1789:A I *D sky130_fd_sc_hd__nor2_2
*I *1787:Y O *D sky130_fd_sc_hd__xnor2_2
*CAP
1 *1790:A 0
2 *1789:A 0.000151762
3 *1787:Y 9.61391e-05
4 *264:8 0.000247901
5 *1789:A *297:10 0.000114656
6 *264:8 *297:10 0.000102365
7 *257:10 *1789:A 0
8 *257:10 *264:8 0
*RES
1 *1787:Y *264:8 40.61 
2 *264:8 *1789:A 41.5836 
3 *264:8 *1790:A 38 
*END

*D_NET *265 0.00160573
*CONN
*I *1790:B I *D sky130_fd_sc_hd__and2_2
*I *1789:B I *D sky130_fd_sc_hd__nor2_2
*I *1788:X O *D sky130_fd_sc_hd__o21ba_2
*CAP
1 *1790:B 0.000146543
2 *1789:B 0
3 *1788:X 0.000296129
4 *265:10 0.000442672
5 *1790:B *266:10 6.07611e-06
6 *1790:B *267:10 0
7 *1790:B *297:10 0.000186025
8 *265:10 *266:10 0.000110106
9 *265:10 *268:10 0
10 *265:10 *297:10 0.000194309
11 *1704:A *265:10 9.84851e-05
12 *1821:A2 *265:10 0
13 *180:8 *265:10 5.50049e-05
14 *184:31 *265:10 7.03766e-05
*RES
1 *1788:X *265:10 44.6493 
2 *265:10 *1789:B 38 
3 *265:10 *1790:B 41.2314 
*END

*D_NET *266 0.000566705
*CONN
*I *1791:A I *D sky130_fd_sc_hd__nor2_2
*I *1821:B1 I *D sky130_fd_sc_hd__a21oi_2
*I *1789:Y O *D sky130_fd_sc_hd__nor2_2
*CAP
1 *1791:A 9.37145e-05
2 *1821:B1 0
3 *1789:Y 0
4 *266:10 0.000131547
5 *266:4 0.000225261
6 *266:10 *268:10 0
7 *1790:B *266:10 6.07611e-06
8 *265:10 *266:10 0.000110106
*RES
1 *1789:Y *266:4 23 
2 *266:4 *266:10 32.9621 
3 *266:10 *1821:B1 23 
4 *266:4 *1791:A 24.5743 
*END

*D_NET *267 0.000957271
*CONN
*I *1822:A I *D sky130_fd_sc_hd__or2_2
*I *1791:B I *D sky130_fd_sc_hd__nor2_2
*I *1790:X O *D sky130_fd_sc_hd__and2_2
*CAP
1 *1822:A 0
2 *1791:B 0
3 *1790:X 0.000431793
4 *267:26 9.00162e-05
5 *267:10 0.000341777
6 *267:10 *296:14 0
7 *267:26 *2094:A 6.07611e-06
8 *267:26 *297:10 8.76088e-05
9 *267:26 *305:8 0
10 *1790:B *267:10 0
*RES
1 *1790:X *267:10 42.9093 
2 *267:10 *1791:B 38 
3 *1790:X *267:26 40.2579 
4 *267:26 *1822:A 38 
*END

*D_NET *268 0.000399219
*CONN
*I *1793:A I *D sky130_fd_sc_hd__xor2_2
*I *1791:Y O *D sky130_fd_sc_hd__nor2_2
*CAP
1 *1793:A 0
2 *1791:Y 0.00019243
3 *268:10 0.00019243
4 *268:10 *269:10 4.21594e-06
5 *268:10 *296:14 0
6 *1821:A2 *268:10 1.01436e-05
7 *265:10 *268:10 0
8 *266:10 *268:10 0
*RES
1 *1791:Y *268:10 41.2314 
2 *268:10 *1793:A 38 
*END

*D_NET *269 0.000727595
*CONN
*I *1793:B I *D sky130_fd_sc_hd__xor2_2
*I *1792:Y O *D sky130_fd_sc_hd__nand2_2
*CAP
1 *1793:B 0
2 *1792:Y 0.000316773
3 *269:10 0.000316773
4 *269:10 *271:10 6.93553e-05
5 *269:10 *296:14 2.04774e-05
6 *1821:A2 *269:10 0
7 *256:20 *269:10 0
8 *268:10 *269:10 4.21594e-06
*RES
1 *1792:Y *269:10 44.525 
2 *269:10 *1793:B 15 
*END

*D_NET *270 0.000994354
*CONN
*I *1794:B I *D sky130_fd_sc_hd__nor2_2
*I *1795:B I *D sky130_fd_sc_hd__xor2_2
*I *1793:X O *D sky130_fd_sc_hd__xor2_2
*CAP
1 *1794:B 8.11843e-05
2 *1795:B 0.000258972
3 *1793:X 0
4 *270:4 0.000340156
5 *1794:B *271:10 9.84851e-05
6 *1795:B *272:8 0
7 *1794:A *1794:B 3.52912e-05
8 *242:8 *1795:B 0.00014065
9 *256:20 *1795:B 3.96156e-05
*RES
1 *1793:X *270:4 23 
2 *270:4 *1795:B 35.4271 
3 *270:4 *1794:B 25.0714 
*END

*D_NET *271 0.00107762
*CONN
*I *1820:B1 I *D sky130_fd_sc_hd__a21o_2
*I *1794:Y O *D sky130_fd_sc_hd__nor2_2
*CAP
1 *1820:B1 0
2 *1794:Y 0.000349571
3 *271:10 0.000349571
4 *271:10 *296:14 0.000111852
5 *1794:A *271:10 4.38084e-05
6 *1794:B *271:10 9.84851e-05
7 *256:14 *271:10 4.57742e-05
8 *256:20 *271:10 9.20311e-06
9 *269:10 *271:10 6.93553e-05
*RES
1 *1794:Y *271:10 43.8621 
2 *271:10 *1820:B1 38 
*END

*D_NET *272 0.000569038
*CONN
*I *1820:A2 I *D sky130_fd_sc_hd__a21o_2
*I *1796:B I *D sky130_fd_sc_hd__xnor2_2
*I *1795:X O *D sky130_fd_sc_hd__xor2_2
*CAP
1 *1820:A2 5.60432e-05
2 *1796:B 9.84943e-05
3 *1795:X 0.000138086
4 *272:8 0.000180537
5 *1795:B *272:8 0
6 *1796:A *1820:A2 4.2573e-05
7 *1820:A1 *1820:A2 5.3304e-05
*RES
1 *1795:X *272:8 40.61 
2 *272:8 *1796:B 38.6214 
3 *1796:B *1820:A2 47.0979 
*END

*D_NET *273 0.00665493
*CONN
*I *1812:A I *D sky130_fd_sc_hd__xor2_2
*I *1811:A I *D sky130_fd_sc_hd__nor2_2
*I *1796:Y O *D sky130_fd_sc_hd__xnor2_2
*CAP
1 *1812:A 0
2 *1811:A 0.000394417
3 *1796:Y 0.00159515
4 *273:31 0.000810505
5 *273:12 0.00129491
6 *273:8 0.00168514
7 *1811:A *281:10 4.08641e-05
8 *1811:A *352:13 4.3407e-05
9 *273:8 *1846:A2 6.62892e-07
10 *273:8 *1846:B1 2.65474e-05
11 *273:8 *1846:B2 1.02949e-05
12 *273:8 *277:10 0.000181131
13 *273:8 *469:42 2.02872e-05
14 *273:8 *469:50 2.93747e-05
15 *273:12 *281:10 1.47563e-05
16 *273:12 *281:19 9.98788e-05
17 *273:12 *283:12 8.26569e-05
18 *273:12 *352:13 1.69668e-05
19 *273:31 *1810:A 0.000125488
20 *273:31 *1812:B 9.84851e-05
21 *273:31 *283:6 5.41385e-05
22 *1800:A1 *273:8 2.98648e-05
23 *195:23 *1811:A 0
*RES
1 *1796:Y *273:8 44.0043 
2 *273:8 *273:12 17.9621 
3 *273:12 *1811:A 44.815 
4 *273:12 *273:31 27.5736 
5 *273:31 *1812:A 23 
*END

*D_NET *274 0.00252554
*CONN
*I *1845:A1 I *D sky130_fd_sc_hd__a21o_2
*I *1844:A I *D sky130_fd_sc_hd__or2_2
*I *1810:A I *D sky130_fd_sc_hd__xnor2_2
*I *1797:Y O *D sky130_fd_sc_hd__o21ai_2
*CAP
1 *1845:A1 0.000103034
2 *1844:A 0.000215733
3 *1810:A 0.000104865
4 *1797:Y 0.000438264
5 *274:21 0.000540855
6 *274:8 0.000765218
7 *1844:A *1845:B1 8.18862e-05
8 *1845:A1 *1845:B1 2.93845e-05
9 *1845:A1 *321:10 1.02949e-05
10 *274:8 *1809:B 0
11 *274:8 *284:10 0
12 *274:8 *288:8 0
13 *274:8 *352:11 0
14 *274:21 *1809:B 0
15 *274:21 *1810:B 0
16 *274:21 *1845:A2 0
17 *274:21 *285:8 0.000110521
18 *274:21 *288:8 0
19 *273:31 *1810:A 0.000125488
*RES
1 *1797:Y *274:8 45.8921 
2 *274:8 *1810:A 40.5271 
3 *274:8 *274:21 20.075 
4 *274:21 *1844:A 26.0243 
5 *274:21 *1845:A1 24.5743 
*END

*D_NET *275 0.00230462
*CONN
*I *1850:A I *D sky130_fd_sc_hd__or3_2
*I *1849:A1 I *D sky130_fd_sc_hd__o21ai_2
*I *1800:B1 I *D sky130_fd_sc_hd__a21oi_2
*I *1798:X O *D sky130_fd_sc_hd__and4_2
*CAP
1 *1850:A 0
2 *1849:A1 0
3 *1800:B1 0
4 *1798:X 0.000388124
5 *275:31 8.71813e-05
6 *275:25 0.000381963
7 *275:10 0.000682906
8 *275:10 *1801:A1 4.57742e-05
9 *275:10 *1801:A2 3.7122e-06
10 *275:10 *1803:A 7.44161e-06
11 *275:10 *279:19 0
12 *275:10 *470:37 0.000135557
13 *275:25 *1849:A2 0
14 *275:25 *1850:B 2.93747e-05
15 *275:25 *1851:A 1.32314e-05
16 *275:25 *1851:B 0
17 *275:25 *279:19 0
18 *275:25 *370:10 3.17634e-05
19 *275:25 *383:12 0.000118015
20 *275:25 *470:37 5.33597e-05
21 *275:31 *1849:A2 0
22 *275:31 *1851:A 9.88575e-05
23 *275:31 *383:12 0.000221184
24 *190:10 *275:10 6.17437e-06
*RES
1 *1798:X *275:10 43.3857 
2 *275:10 *1800:B1 38 
3 *275:10 *275:25 22.0221 
4 *275:25 *275:31 32.9621 
5 *275:31 *1849:A1 23 
6 *275:25 *1850:A 23 
*END

*D_NET *276 0.00276074
*CONN
*I *1918:A1 I *D sky130_fd_sc_hd__a21o_2
*I *1848:A1 I *D sky130_fd_sc_hd__o21a_2
*I *1895:C I *D sky130_fd_sc_hd__and3_2
*I *1800:A2 I *D sky130_fd_sc_hd__a21oi_2
*I *1799:Y O *D sky130_fd_sc_hd__nand2_2
*CAP
1 *1918:A1 0.000162774
2 *1848:A1 0.000119986
3 *1895:C 4.5045e-05
4 *1800:A2 9.90748e-05
5 *1799:Y 9.52473e-05
6 *276:30 0.000343195
7 *276:19 0.000201679
8 *276:8 0.00029052
9 *1800:A2 *322:8 1.99391e-05
10 *1800:A2 *383:12 5.93381e-05
11 *1800:A2 *470:24 0.000114083
12 *1848:A1 *1847:A 5.50049e-05
13 *1848:A1 *1847:B 0.000142308
14 *1848:A1 *322:8 1.08681e-05
15 *1895:C *470:16 1.05235e-05
16 *1918:A1 *319:8 2.64616e-05
17 *1918:A1 *322:8 1.34041e-05
18 *1918:A1 *323:14 0
19 *1918:A1 *470:10 0.000185104
20 *1918:A1 *470:16 6.39874e-05
21 *276:19 *322:8 5.90251e-05
22 *276:19 *383:12 6.11183e-05
23 *276:19 *470:16 0.000118174
24 *276:19 *470:24 0.000185095
25 *276:30 *322:8 7.4425e-05
26 *276:30 *470:16 0.000167349
27 *190:10 *1800:A2 3.70094e-05
*RES
1 *1799:Y *276:8 39.0979 
2 *276:8 *1800:A2 40.61 
3 *276:8 *276:19 4.01857 
4 *276:19 *1895:C 38.6214 
5 *276:19 *276:30 2.26821 
6 *276:30 *1848:A1 40.8275 
7 *276:30 *1918:A1 41.9254 
*END

*D_NET *277 0.00107739
*CONN
*I *1801:B1 I *D sky130_fd_sc_hd__a21oi_2
*I *1802:C I *D sky130_fd_sc_hd__and3_2
*I *1800:Y O *D sky130_fd_sc_hd__a21oi_2
*CAP
1 *1801:B1 0
2 *1802:C 7.97389e-05
3 *1800:Y 0.00015374
4 *277:10 0.000233479
5 *1802:C *1801:A1 0.00014411
6 *1802:C *383:12 1.47563e-05
7 *1802:C *452:51 0
8 *1802:C *469:32 4.08537e-05
9 *277:10 *383:12 7.81073e-05
10 *277:10 *470:37 4.39607e-05
11 *1800:A1 *277:10 2.93845e-05
12 *190:10 *1802:C 4.6318e-06
13 *190:10 *277:10 7.34962e-05
14 *273:8 *277:10 0.000181131
*RES
1 *1800:Y *277:10 42.3086 
2 *277:10 *1802:C 40.2579 
3 *277:10 *1801:B1 38 
*END

*D_NET *278 0.000332388
*CONN
*I *1803:A I *D sky130_fd_sc_hd__nor2_2
*I *1801:Y O *D sky130_fd_sc_hd__a21oi_2
*CAP
1 *1803:A 0.000127901
2 *1801:Y 0.000127901
3 *1803:A *1801:A1 1.24376e-05
4 *1803:A *1801:A2 5.67058e-05
5 *275:10 *1803:A 7.44161e-06
*RES
1 *1801:Y *1803:A 48.5686 
*END

*D_NET *279 0.00311688
*CONN
*I *1849:A2 I *D sky130_fd_sc_hd__o21ai_2
*I *1850:B I *D sky130_fd_sc_hd__or3_2
*I *1803:B I *D sky130_fd_sc_hd__nor2_2
*I *1802:X O *D sky130_fd_sc_hd__and3_2
*CAP
1 *1849:A2 0.000325351
2 *1850:B 0.000167075
3 *1803:B 0
4 *1802:X 0.000321676
5 *279:19 0.000920114
6 *279:10 0.000749364
7 *1849:A2 *1851:A 0
8 *1849:A2 *370:10 6.79006e-05
9 *1849:A2 *371:12 0
10 *1849:A2 *383:12 0
11 *1850:B *1851:A 1.03955e-05
12 *1850:B *1851:B 0.000141954
13 *279:10 *1717:A 0.000182832
14 *279:10 *470:39 0
15 *279:19 *280:12 0
16 *279:19 *470:37 0
17 *191:23 *279:10 4.75206e-05
18 *191:31 *279:10 0.000141879
19 *191:31 *279:19 1.14452e-05
20 *275:10 *279:19 0
21 *275:25 *1849:A2 0
22 *275:25 *1850:B 2.93747e-05
23 *275:25 *279:19 0
24 *275:31 *1849:A2 0
*RES
1 *1802:X *279:10 43.3857 
2 *279:10 *1803:B 38 
3 *279:10 *279:19 7.89214 
4 *279:19 *1850:B 40.5271 
5 *279:19 *1849:A2 43.7171 
*END

*D_NET *280 0.00103769
*CONN
*I *1805:C I *D sky130_fd_sc_hd__nor3_2
*I *1804:B1 I *D sky130_fd_sc_hd__o21a_2
*I *1803:Y O *D sky130_fd_sc_hd__nor2_2
*CAP
1 *1805:C 9.499e-05
2 *1804:B1 0
3 *1803:Y 0.000113611
4 *280:12 0.000139679
5 *280:6 0.00034828
6 *280:12 *281:19 0
7 *191:31 *280:6 0.000143655
8 *191:31 *280:12 0
9 *195:23 *280:12 0.000197479
10 *279:19 *280:12 0
*RES
1 *1803:Y *280:6 25.5271 
2 *280:6 *280:12 33.3143 
3 *280:12 *1804:B1 23 
4 *280:6 *1805:C 24.5743 
*END

*D_NET *281 0.00232042
*CONN
*I *1897:A1 I *D sky130_fd_sc_hd__o21ai_2
*I *1852:A I *D sky130_fd_sc_hd__xor2_2
*I *1898:A1 I *D sky130_fd_sc_hd__o211ai_2
*I *1806:A I *D sky130_fd_sc_hd__or2_2
*I *1804:X O *D sky130_fd_sc_hd__o21a_2
*CAP
1 *1897:A1 9.06691e-05
2 *1852:A 0
3 *1898:A1 0
4 *1806:A 0
5 *1804:X 0.000299913
6 *281:30 0.000213199
7 *281:19 0.00054824
8 *281:10 0.000725623
9 *1897:A1 *1852:B 5.07587e-05
10 *1897:A1 *1897:A2 5.50049e-05
11 *281:19 *1897:A2 6.07611e-06
12 *281:19 *283:12 0
13 *281:19 *320:10 8.51329e-05
14 *281:19 *352:13 0
15 *281:30 *1897:A2 9.03054e-05
16 *281:30 *352:13 0
17 *1811:A *281:10 4.08641e-05
18 *195:23 *281:10 0
19 *195:23 *281:19 0
20 *273:12 *281:10 1.47563e-05
21 *273:12 *281:19 9.98788e-05
22 *280:12 *281:19 0
*RES
1 *1804:X *281:10 42.5571 
2 *281:10 *1806:A 38 
3 *281:10 *281:19 9.30071 
4 *281:19 *1898:A1 38 
5 *281:19 *281:30 17.61 
6 *281:30 *1852:A 23 
7 *281:30 *1897:A1 25.0714 
*END

*D_NET *282 7.22295e-05
*CONN
*I *1806:B I *D sky130_fd_sc_hd__or2_2
*I *1805:Y O *D sky130_fd_sc_hd__nor3_2
*CAP
1 *1806:B 3.61148e-05
2 *1805:Y 3.61148e-05
*RES
1 *1805:Y *1806:B 46.6214 
*END

*D_NET *283 0.000679747
*CONN
*I *1808:A I *D sky130_fd_sc_hd__nor2_2
*I *1809:A I *D sky130_fd_sc_hd__xor2_2
*I *1806:X O *D sky130_fd_sc_hd__or2_2
*CAP
1 *1808:A 0
2 *1809:A 0
3 *1806:X 5.15204e-05
4 *283:12 9.34206e-05
5 *283:6 0.000144941
6 *283:12 *352:13 0.00025307
7 *273:12 *283:12 8.26569e-05
8 *273:31 *283:6 5.41385e-05
9 *281:19 *283:12 0
*RES
1 *1806:X *283:6 24.0979 
2 *283:6 *283:12 33.3143 
3 *283:12 *1809:A 23 
4 *283:6 *1808:A 23 
*END

*D_NET *284 0.00226448
*CONN
*I *1809:B I *D sky130_fd_sc_hd__xor2_2
*I *1808:B I *D sky130_fd_sc_hd__nor2_2
*I *1807:Y O *D sky130_fd_sc_hd__a21oi_2
*CAP
1 *1809:B 6.59088e-05
2 *1808:B 0
3 *1807:Y 0.000548237
4 *284:10 0.000614146
5 *1809:B *285:8 0.000199701
6 *1809:B *352:13 0.000243847
7 *284:10 *352:11 5.62433e-06
8 *284:10 *352:13 0.000555351
9 *1807:B1 *284:10 3.16665e-05
10 *274:8 *1809:B 0
11 *274:8 *284:10 0
12 *274:21 *1809:B 0
*RES
1 *1807:Y *284:10 48.5436 
2 *284:10 *1808:B 38 
3 *284:10 *1809:B 18.3143 
*END

*D_NET *285 0.00100784
*CONN
*I *1845:B1 I *D sky130_fd_sc_hd__a21o_2
*I *1844:B I *D sky130_fd_sc_hd__or2_2
*I *1808:Y O *D sky130_fd_sc_hd__nor2_2
*CAP
1 *1845:B1 9.07668e-05
2 *1844:B 0
3 *1808:Y 0.000143053
4 *285:10 9.07668e-05
5 *285:8 0.000143053
6 *1845:B1 *321:10 4.06849e-05
7 *285:8 *1845:A2 0
8 *285:8 *352:13 7.80251e-05
9 *1809:B *285:8 0.000199701
10 *1844:A *1845:B1 8.18862e-05
11 *1845:A1 *1845:B1 2.93845e-05
12 *274:21 *285:8 0.000110521
*RES
1 *1808:Y *285:8 42.7229 
2 *285:8 *285:10 15 
3 *285:10 *1844:B 23 
4 *285:10 *1845:B1 25.5479 
*END

*D_NET *286 0.000677317
*CONN
*I *1845:A2 I *D sky130_fd_sc_hd__a21o_2
*I *1810:B I *D sky130_fd_sc_hd__xnor2_2
*I *1809:X O *D sky130_fd_sc_hd__xor2_2
*CAP
1 *1845:A2 0.000128202
2 *1810:B 9.0986e-05
3 *1809:X 0
4 *286:6 0.000219188
5 *1810:B *288:8 0.000199701
6 *1845:A2 *2091:A 0
7 *1845:A2 *288:8 3.92407e-05
8 *274:21 *1810:B 0
9 *274:21 *1845:A2 0
10 *285:8 *1845:A2 0
*RES
1 *1809:X *286:6 38 
2 *286:6 *1810:B 40.61 
3 *286:6 *1845:A2 40.61 
*END

*D_NET *287 0.00116393
*CONN
*I *1812:B I *D sky130_fd_sc_hd__xor2_2
*I *1811:B I *D sky130_fd_sc_hd__nor2_2
*I *1810:Y O *D sky130_fd_sc_hd__xnor2_2
*CAP
1 *1812:B 9.92572e-05
2 *1811:B 0
3 *1810:Y 0
4 *287:12 0.000348623
5 *287:4 0.00044788
6 *287:12 *1813:B 0
7 *287:12 *345:8 0.000169683
8 *273:31 *1812:B 9.84851e-05
*RES
1 *1810:Y *287:4 23 
2 *287:4 *287:12 36.6907 
3 *287:12 *1811:B 23 
4 *287:4 *1812:B 1.99893 
*END

*D_NET *288 0.00155402
*CONN
*I *1819:B1 I *D sky130_fd_sc_hd__a21o_2
*I *1811:Y O *D sky130_fd_sc_hd__nor2_2
*CAP
1 *1819:B1 0.000271585
2 *1811:Y 0.000243148
3 *288:8 0.000514733
4 *1819:B1 *1906:A1 0.000185434
5 *1819:B1 *295:10 0.00010018
6 *288:8 *2091:A 0
7 *288:8 *345:8 0
8 *1810:B *288:8 0.000199701
9 *1845:A2 *288:8 3.92407e-05
10 *274:8 *288:8 0
11 *274:21 *288:8 0
*RES
1 *1811:Y *288:8 43.075 
2 *288:8 *1819:B1 43.8621 
*END

*D_NET *289 0.00158529
*CONN
*I *1819:A2 I *D sky130_fd_sc_hd__a21o_2
*I *1813:B I *D sky130_fd_sc_hd__xnor2_2
*I *1812:X O *D sky130_fd_sc_hd__xor2_2
*CAP
1 *1819:A2 0.000119474
2 *1813:B 0.000170987
3 *1812:X 0.000184453
4 *289:8 0.000474913
5 *1813:B *294:31 9.5877e-05
6 *1813:B *345:8 0
7 *1813:B *502:8 9.75779e-05
8 *1819:A2 *345:8 0
9 *1819:A1 *1813:B 0.000158229
10 *1819:A1 *1819:A2 0.000222123
11 *241:8 *1813:B 6.16531e-05
12 *287:12 *1813:B 0
*RES
1 *1812:X *289:8 41.0036 
2 *289:8 *1813:B 42.06 
3 *289:8 *1819:A2 40.9621 
*END

*D_NET *290 0.000740778
*CONN
*I *1815:A I *D sky130_fd_sc_hd__nor2_2
*I *1816:A I *D sky130_fd_sc_hd__xor2_2
*I *1813:Y O *D sky130_fd_sc_hd__xnor2_2
*CAP
1 *1815:A 0.000162149
2 *1816:A 0.000113991
3 *1813:Y 0
4 *290:6 0.00027614
5 *1815:A *340:10 7.38527e-05
6 *1816:A *1818:B 0.000114645
*RES
1 *1813:Y *290:6 38 
2 *290:6 *1816:A 40.9621 
3 *290:6 *1815:A 41.5836 
*END

*D_NET *291 0.0017523
*CONN
*I *1815:B I *D sky130_fd_sc_hd__nor2_2
*I *1816:B I *D sky130_fd_sc_hd__xor2_2
*I *1814:X O *D sky130_fd_sc_hd__and2b_2
*CAP
1 *1815:B 0.000123839
2 *1816:B 0
3 *1814:X 0.000260437
4 *291:10 0.000384276
5 *1815:B *292:8 0.000382583
6 *1815:B *294:31 0
7 *1815:B *340:10 0.000440396
8 *291:10 *294:31 0
9 *291:10 *340:10 0.00013139
10 *1819:A1 *1815:B 0
11 *43:8 *291:10 0
12 *206:10 *291:10 2.93747e-05
*RES
1 *1814:X *291:10 41.9564 
2 *291:10 *1816:B 15 
3 *291:10 *1815:B 43.7793 
*END

*D_NET *292 0.00171089
*CONN
*I *1869:B1 I *D sky130_fd_sc_hd__a21o_4
*I *1815:Y O *D sky130_fd_sc_hd__nor2_2
*CAP
1 *1869:B1 0.000335304
2 *1815:Y 0.000210134
3 *292:8 0.000545438
4 *1869:B1 *1869:A1 3.17516e-05
5 *1869:B1 *1869:A2 9.75779e-05
6 *1869:B1 *293:22 8.1796e-05
7 *1869:B1 *294:12 2.63049e-05
8 *292:8 *294:31 0
9 *1815:B *292:8 0.000382583
10 *1819:A1 *292:8 0
*RES
1 *1815:Y *292:8 43.075 
2 *292:8 *1869:B1 44.8357 
*END

*D_NET *293 0.00145917
*CONN
*I *1818:A I *D sky130_fd_sc_hd__xor2_2
*I *1869:A2 I *D sky130_fd_sc_hd__a21o_4
*I *1816:X O *D sky130_fd_sc_hd__xor2_2
*CAP
1 *1818:A 0
2 *1869:A2 2.96003e-05
3 *1816:X 0.00037606
4 *293:22 0.00034646
5 *1869:A2 *1869:A1 5.25848e-05
6 *293:22 *1818:B 0
7 *293:22 *294:8 8.01125e-05
8 *293:22 *294:12 0.000394982
9 *1869:B1 *1869:A2 9.75779e-05
10 *1869:B1 *293:22 8.1796e-05
*RES
1 *1816:X *1869:A2 47.0979 
2 *1816:X *293:22 45.9957 
3 *293:22 *1818:A 38 
*END

*D_NET *294 0.00379414
*CONN
*I *2087:A I *D sky130_fd_sc_hd__buf_6
*I *1869:A1 I *D sky130_fd_sc_hd__a21o_4
*I *1817:X O *D sky130_fd_sc_hd__a21o_4
*CAP
1 *2087:A 0
2 *1869:A1 0.000182727
3 *1817:X 0.000467422
4 *294:31 0.000318406
5 *294:12 0.000864204
6 *294:8 0.000830493
7 *294:8 *1818:B 4.16775e-05
8 *294:8 *340:10 0
9 *294:8 *511:8 0.000107031
10 *294:31 *502:8 4.6595e-05
11 *1813:A *294:31 9.67842e-05
12 *1813:B *294:31 9.5877e-05
13 *1815:B *294:31 0
14 *1869:A2 *1869:A1 5.25848e-05
15 *1869:B1 *1869:A1 3.17516e-05
16 *1869:B1 *294:12 2.63049e-05
17 *2054:A *294:8 0
18 *241:8 *294:31 0.000157185
19 *291:10 *294:31 0
20 *292:8 *294:31 0
21 *293:22 *294:8 8.01125e-05
22 *293:22 *294:12 0.000394982
*RES
1 *1817:X *294:8 48.3571 
2 *294:8 *294:12 20.3857 
3 *294:12 *1869:A1 25.9 
4 *294:12 *294:31 36.9186 
5 *294:31 *2087:A 23 
*END

*D_NET *295 0.00140631
*CONN
*I *1868:A I *D sky130_fd_sc_hd__xnor2_2
*I *1867:B I *D sky130_fd_sc_hd__and2b_2
*I *1819:X O *D sky130_fd_sc_hd__a21o_2
*CAP
1 *1868:A 0.000133246
2 *1867:B 0
3 *1819:X 0.000325103
4 *295:12 0.000133246
5 *295:10 0.000325103
6 *1868:A *1868:B 0.000230604
7 *1868:A *343:10 0.000131304
8 *295:10 *1906:A1 2.4754e-05
9 *295:10 *2091:A 0
10 *295:10 *343:10 0
11 *295:10 *344:10 0
12 *295:10 *344:20 0
13 *1819:A1 *295:10 2.76611e-06
14 *1819:B1 *295:10 0.00010018
*RES
1 *1819:X *295:10 44.2971 
2 *295:10 *295:12 15 
3 *295:12 *1867:B 23 
4 *295:12 *1868:A 27.4743 
*END

*D_NET *296 0.002738
*CONN
*I *1843:A I *D sky130_fd_sc_hd__xnor2_2
*I *1878:A2 I *D sky130_fd_sc_hd__a21oi_2
*I *1820:X O *D sky130_fd_sc_hd__a21o_2
*CAP
1 *1843:A 0
2 *1878:A2 0
3 *1820:X 0.000110706
4 *296:22 0.000401045
5 *296:14 0.00111424
6 *296:8 0.000823905
7 *296:22 *1843:B 0
8 *296:22 *1878:A1 6.18548e-05
9 *296:22 *306:8 0
10 *296:22 *316:21 0
11 *256:20 *296:14 9.39159e-05
12 *267:10 *296:14 0
13 *268:10 *296:14 0
14 *269:10 *296:14 2.04774e-05
15 *271:10 *296:14 0.000111852
*RES
1 *1820:X *296:8 39.5743 
2 *296:8 *296:14 29.065 
3 *296:14 *296:22 37.4779 
4 *296:22 *1878:A2 23 
5 *296:14 *1843:A 23 
*END

*D_NET *297 0.00216926
*CONN
*I *2094:A I *D sky130_fd_sc_hd__buf_2
*I *1822:B I *D sky130_fd_sc_hd__or2_2
*I *1821:Y O *D sky130_fd_sc_hd__a21oi_2
*CAP
1 *2094:A 0.000194741
2 *1822:B 0
3 *1821:Y 0.000297675
4 *297:10 0.000492416
5 *2094:A *1842:B 0.000228909
6 *2094:A *1881:A2 0.000128401
7 *2094:A *305:8 0
8 *1786:A *2094:A 0
9 *1786:A *297:10 0
10 *1789:A *297:10 0.000114656
11 *1790:B *297:10 0.000186025
12 *1821:A2 *297:10 4.02078e-05
13 *256:14 *297:10 9.5877e-05
14 *257:10 *297:10 0
15 *263:8 *2094:A 0
16 *264:8 *297:10 0.000102365
17 *265:10 *297:10 0.000194309
18 *267:26 *2094:A 6.07611e-06
19 *267:26 *297:10 8.76088e-05
*RES
1 *1821:Y *297:10 47.3421 
2 *297:10 *1822:B 38 
3 *297:10 *2094:A 43.2821 
*END

*D_NET *298 0.000272535
*CONN
*I *1830:A I *D sky130_fd_sc_hd__xnor2_2
*I *1822:X O *D sky130_fd_sc_hd__or2_2
*CAP
1 *1830:A 0.000108762
2 *1822:X 0.000108762
3 *1830:A *1830:B 5.50106e-05
*RES
1 *1822:X *1830:A 48.0507 
*END

*D_NET *299 0.000389966
*CONN
*I *1825:B1 I *D sky130_fd_sc_hd__o21a_2
*I *1823:X O *D sky130_fd_sc_hd__a22o_2
*CAP
1 *1825:B1 2.53838e-05
2 *1823:X 7.79699e-05
3 *299:8 0.000103354
4 *299:8 *300:10 0.000116314
5 *299:8 *445:73 0
6 *299:8 *512:50 1.02387e-05
7 *259:34 *1825:B1 5.67058e-05
*RES
1 *1823:X *299:8 39.9057 
2 *299:8 *1825:B1 38.6214 
*END

*D_NET *300 0.00125332
*CONN
*I *1911:B1 I *D sky130_fd_sc_hd__a21o_2
*I *1825:A2 I *D sky130_fd_sc_hd__o21a_2
*I *1824:Y O *D sky130_fd_sc_hd__nand2_2
*CAP
1 *1911:B1 7.37479e-05
2 *1825:A2 0
3 *1824:Y 0
4 *300:10 0.000158268
5 *300:4 0.000232016
6 *1911:B1 *366:8 4.66047e-05
7 *1911:B1 *385:8 0.00010018
8 *1911:B1 *514:70 5.3304e-05
9 *300:10 *445:73 0
10 *300:10 *445:95 0.000191166
11 *300:10 *512:50 9.27917e-05
12 *300:10 *514:70 0.000188926
13 *299:8 *300:10 0.000116314
*RES
1 *1824:Y *300:4 23 
2 *300:4 *300:10 35.075 
3 *300:10 *1825:A2 23 
4 *300:4 *1911:B1 25.0507 
*END

*D_NET *301 0.0011936
*CONN
*I *1827:A I *D sky130_fd_sc_hd__nand2_2
*I *1828:A I *D sky130_fd_sc_hd__xnor2_2
*I *1825:X O *D sky130_fd_sc_hd__o21a_2
*CAP
1 *1827:A 0
2 *1828:A 0
3 *1825:X 0.000144195
4 *301:21 0.000319627
5 *301:8 0.000463822
6 *301:21 *1827:B 5.44006e-05
7 *301:21 *302:10 1.19796e-05
8 *301:21 *303:8 6.70363e-05
9 *259:34 *301:8 0.000119313
10 *259:34 *301:21 1.32314e-05
*RES
1 *1825:X *301:8 26.0243 
2 *301:8 *1828:A 23 
3 *301:8 *301:21 36.3179 
4 *301:21 *1827:A 23 
*END

*D_NET *302 0.0017085
*CONN
*I *1827:B I *D sky130_fd_sc_hd__nand2_2
*I *1828:B I *D sky130_fd_sc_hd__xnor2_2
*I *1826:Y O *D sky130_fd_sc_hd__o21bai_2
*CAP
1 *1827:B 0.000104407
2 *1828:B 0
3 *1826:Y 0.000338873
4 *302:10 0.00044328
5 *1827:B *303:8 3.31127e-05
6 *1827:B *387:18 4.56504e-05
7 *1827:B *514:10 9.26098e-05
8 *1827:B *514:14 0.000130424
9 *302:10 *1842:B 4.33845e-05
10 *302:10 *514:14 0.000410379
11 *301:21 *1827:B 5.44006e-05
12 *301:21 *302:10 1.19796e-05
*RES
1 *1826:Y *302:10 45.4779 
2 *302:10 *1828:B 38 
3 *302:10 *1827:B 41.5836 
*END

*D_NET *303 0.00114367
*CONN
*I *1880:A I *D sky130_fd_sc_hd__xnor2_2
*I *1911:A2 I *D sky130_fd_sc_hd__a21o_2
*I *1827:Y O *D sky130_fd_sc_hd__nand2_2
*CAP
1 *1880:A 0
2 *1911:A2 0.000103643
3 *1827:Y 0.00014818
4 *303:12 0.000169101
5 *303:8 0.000213639
6 *1911:A2 *1880:B 5.50049e-05
7 *1911:A2 *385:8 6.36209e-05
8 *303:8 *514:10 5.15908e-05
9 *303:12 *385:8 0.000140259
10 *1827:B *303:8 3.31127e-05
11 *1911:A1 *1911:A2 9.84794e-05
12 *301:21 *303:8 6.70363e-05
*RES
1 *1827:Y *303:8 41.3143 
2 *303:8 *303:12 16.5743 
3 *303:12 *1911:A2 25.5479 
4 *303:12 *1880:A 23 
*END

*D_NET *304 0.00144467
*CONN
*I *1829:B I *D sky130_fd_sc_hd__xnor2_2
*I *1881:B1 I *D sky130_fd_sc_hd__a21oi_2
*I *1828:Y O *D sky130_fd_sc_hd__xnor2_2
*CAP
1 *1829:B 0
2 *1881:B1 0.000155545
3 *1828:Y 0.000346752
4 *304:10 0.000502297
5 *1881:B1 *1842:B 3.22879e-05
6 *1881:B1 *356:10 0.000197479
7 *304:10 *356:10 0.000141869
8 *263:8 *1881:B1 5.50049e-05
9 *263:14 *1881:B1 1.34354e-05
*RES
1 *1828:Y *304:10 43.3857 
2 *304:10 *1881:B1 41.9357 
3 *304:10 *1829:B 38 
*END

*D_NET *305 0.000787856
*CONN
*I *1830:B I *D sky130_fd_sc_hd__xnor2_2
*I *1829:Y O *D sky130_fd_sc_hd__xnor2_2
*CAP
1 *1830:B 2.5164e-05
2 *1829:Y 0.000341259
3 *305:8 0.000366423
4 *305:8 *1841:A 0
5 *1830:A *1830:B 5.50106e-05
6 *2094:A *305:8 0
7 *263:14 *305:8 0
8 *267:26 *305:8 0
*RES
1 *1829:Y *305:8 43.7793 
2 *305:8 *1830:B 38.6214 
*END

*D_NET *306 0.000726114
*CONN
*I *1841:A I *D sky130_fd_sc_hd__nor2_2
*I *1842:A I *D sky130_fd_sc_hd__xor2_2
*I *1830:Y O *D sky130_fd_sc_hd__xnor2_2
*CAP
1 *1841:A 0.000139967
2 *1842:A 0
3 *1830:Y 0.000138964
4 *306:8 0.000278932
5 *1841:A *316:21 0.00012901
6 *306:8 *316:21 3.92407e-05
7 *296:22 *306:8 0
8 *305:8 *1841:A 0
*RES
1 *1830:Y *306:8 40.2579 
2 *306:8 *1842:A 38 
3 *306:8 *1841:A 41.7286 
*END

*D_NET *307 0.0010717
*CONN
*I *1840:A I *D sky130_fd_sc_hd__xnor2_2
*I *1831:X O *D sky130_fd_sc_hd__a21o_2
*CAP
1 *1840:A 0
2 *1831:X 0.000306427
3 *307:10 0.000306427
4 *307:10 *315:8 4.68911e-05
5 *1831:B1 *307:10 5.40241e-05
6 *1888:C1 *307:10 0.00035793
*RES
1 *1831:X *307:10 44.7736 
2 *307:10 *1840:A 38 
*END

*D_NET *308 0.00216961
*CONN
*I *1834:A I *D sky130_fd_sc_hd__nor2_2
*I *1836:A I *D sky130_fd_sc_hd__or3_2
*I *1832:Y O *D sky130_fd_sc_hd__a22oi_2
*CAP
1 *1834:A 0.000392525
2 *1836:A 8.31904e-05
3 *1832:Y 6.80814e-05
4 *308:8 0.000543797
5 *1834:A *1885:A 2.3529e-05
6 *1834:A *309:18 0
7 *1834:A *309:33 4.21594e-06
8 *1834:A *310:8 2.36844e-05
9 *1834:A *311:18 0
10 *1834:A *512:10 0.000140671
11 *1836:A *1836:C 8.43466e-05
12 *1836:A *1885:B 2.02872e-05
13 *1836:A *311:12 0.000182832
14 *1836:A *360:10 1.76557e-05
15 *1836:A *485:103 0.000267173
16 *308:8 *1885:A 2.95125e-05
17 *308:8 *485:103 0.000137788
18 *308:8 *495:10 0.000110913
19 *1885:C *1834:A 2.71291e-05
20 *1885:C *308:8 1.22803e-05
21 *22:11 *1834:A 0
*RES
1 *1832:Y *308:8 40.2579 
2 *308:8 *1836:A 41.48 
3 *308:8 *1834:A 46.5964 
*END

*D_NET *309 0.00417236
*CONN
*I *1836:B I *D sky130_fd_sc_hd__or3_2
*I *1913:A I *D sky130_fd_sc_hd__or3_4
*I *1834:B I *D sky130_fd_sc_hd__nor2_2
*I *1833:X O *D sky130_fd_sc_hd__and4_2
*CAP
1 *1836:B 5.87223e-05
2 *1913:A 0
3 *1834:B 0
4 *1833:X 0.000170141
5 *309:33 0.000730005
6 *309:18 0.00111716
7 *309:12 0.0005194
8 *309:8 0.000243667
9 *1836:B *485:103 9.84851e-05
10 *309:8 *485:103 0
11 *309:8 *495:18 0.000110913
12 *309:12 *485:103 9.67842e-05
13 *309:18 *1839:B 0
14 *309:18 *310:8 6.58373e-05
15 *309:18 *311:18 0.000410369
16 *309:18 *360:10 0
17 *309:18 *364:14 0.000203929
18 *309:18 *512:10 6.02277e-06
19 *309:33 *1887:B 1.94812e-05
20 *309:33 *364:14 0
21 *1770:A2 *309:8 0.000163352
22 *1834:A *309:18 0
23 *1834:A *309:33 4.21594e-06
24 *1885:C *309:8 0.000136486
25 *1885:C *309:18 1.7387e-05
*RES
1 *1833:X *309:8 42.0186 
2 *309:8 *309:12 16.0979 
3 *309:12 *309:18 25.3986 
4 *309:18 *1834:B 38 
5 *309:18 *309:33 27.4079 
6 *309:33 *1913:A 23 
7 *309:12 *1836:B 24.0979 
*END

*D_NET *310 0.000299953
*CONN
*I *1837:A I *D sky130_fd_sc_hd__xnor2_2
*I *1834:Y O *D sky130_fd_sc_hd__nor2_2
*CAP
1 *1837:A 0
2 *1834:Y 7.43934e-05
3 *310:8 7.43934e-05
4 *310:8 *512:10 6.16439e-05
5 *1834:A *310:8 2.36844e-05
6 *309:18 *310:8 6.58373e-05
*RES
1 *1834:Y *310:8 39.9057 
2 *310:8 *1837:A 38 
*END

*D_NET *311 0.00248428
*CONN
*I *1836:C I *D sky130_fd_sc_hd__or3_2
*I *1837:B I *D sky130_fd_sc_hd__xnor2_2
*I *1835:Y O *D sky130_fd_sc_hd__nor2_2
*CAP
1 *1836:C 3.43535e-05
2 *1837:B 0
3 *1835:Y 0.000142852
4 *311:18 0.00016498
5 *311:12 0.000424279
6 *311:8 0.000367797
7 *1836:C *360:10 4.96717e-05
8 *311:8 *1885:A 8.26312e-05
9 *311:8 *440:99 0.00014411
10 *311:12 *1885:A 9.67842e-05
11 *311:12 *1885:B 1.21972e-05
12 *311:12 *360:10 6.17437e-06
13 *311:18 *512:10 9.98995e-05
14 *1834:A *311:18 0
15 *1836:A *1836:C 8.43466e-05
16 *1836:A *311:12 0.000182832
17 *1885:C *311:18 1.83667e-05
18 *20:11 *311:8 5.67069e-05
19 *22:11 *311:8 0.000105932
20 *309:18 *311:18 0.000410369
*RES
1 *1835:Y *311:8 43.075 
2 *311:8 *311:12 19.4329 
3 *311:12 *311:18 35.4271 
4 *311:18 *1837:B 23 
5 *311:12 *1836:C 24.0979 
*END

*D_NET *312 0.0020072
*CONN
*I *1887:A I *D sky130_fd_sc_hd__xnor2_2
*I *1886:A_N I *D sky130_fd_sc_hd__and2b_2
*I *1836:X O *D sky130_fd_sc_hd__or3_2
*CAP
1 *1887:A 0.000167126
2 *1886:A_N 0.00015534
3 *1836:X 0.000285476
4 *312:8 0.000607942
5 *1887:A *1887:B 0.000151769
6 *1887:A *360:10 8.24662e-05
7 *1887:A *361:10 0
8 *1887:A *364:14 1.94522e-05
9 *1887:A *365:10 0
10 *312:8 *1838:B 0
11 *312:8 *1839:B 0
12 *312:8 *313:21 0
13 *312:8 *360:10 0.000537632
14 *1838:A *1887:A 0
*RES
1 *1836:X *312:8 45.1879 
2 *312:8 *1886:A_N 40.0507 
3 *312:8 *1887:A 42.2879 
*END

*D_NET *313 0.00313025
*CONN
*I *1838:B I *D sky130_fd_sc_hd__and2_2
*I *1889:A2 I *D sky130_fd_sc_hd__o21a_4
*I *1839:B I *D sky130_fd_sc_hd__xor2_2
*I *1888:A2 I *D sky130_fd_sc_hd__a211o_4
*I *1837:Y O *D sky130_fd_sc_hd__xnor2_2
*CAP
1 *1838:B 0.000325345
2 *1889:A2 0
3 *1839:B 0.000223877
4 *1888:A2 0.000455209
5 *1837:Y 4.51627e-05
6 *313:21 0.00037753
7 *313:19 0.000478999
8 *313:6 0.000500372
9 *1838:B *361:10 2.13733e-05
10 *1888:A2 *506:6 0.000187861
11 *313:6 *506:6 5.41288e-05
12 *1838:A *1838:B 0.000188893
13 *1838:A *313:21 0.000101564
14 *1888:C1 *1888:A2 7.87147e-05
15 *251:19 *1839:B 8.51432e-05
16 *251:19 *313:21 6.07611e-06
17 *309:18 *1839:B 0
18 *312:8 *1838:B 0
19 *312:8 *1839:B 0
20 *312:8 *313:21 0
*RES
1 *1837:Y *313:6 24.0979 
2 *313:6 *1888:A2 31.2857 
3 *313:6 *313:19 15 
4 *313:19 *313:21 2.96214 
5 *313:21 *1839:B 19.2568 
6 *313:21 *1889:A2 38 
7 *313:19 *1838:B 44.1107 
*END

*D_NET *314 0.000397919
*CONN
*I *1888:B1 I *D sky130_fd_sc_hd__a211o_4
*I *1838:X O *D sky130_fd_sc_hd__and2_2
*CAP
1 *1888:B1 0
2 *1838:X 0.000198959
3 *314:10 0.000198959
4 *1838:A *314:10 0
*RES
1 *1838:X *314:10 40.8793 
2 *314:10 *1888:B1 38 
*END

*D_NET *315 0.000260458
*CONN
*I *1840:B I *D sky130_fd_sc_hd__xnor2_2
*I *1839:X O *D sky130_fd_sc_hd__xor2_2
*CAP
1 *1840:B 0
2 *1839:X 0.000106783
3 *315:8 0.000106783
4 *1838:A *315:8 0
5 *251:19 *315:8 0
6 *307:10 *315:8 4.68911e-05
*RES
1 *1839:X *315:8 40.2579 
2 *315:8 *1840:B 38 
*END

*D_NET *316 0.00458722
*CONN
*I *1841:B I *D sky130_fd_sc_hd__nor2_2
*I *1842:B I *D sky130_fd_sc_hd__xor2_2
*I *1840:Y O *D sky130_fd_sc_hd__xnor2_2
*CAP
1 *1841:B 0
2 *1842:B 0.00197756
3 *1840:Y 0.00185815
4 *316:21 0.00011941
5 *1842:B *1881:A2 2.98648e-05
6 *316:21 *1878:A1 0
7 *1786:A *1842:B 2.93845e-05
8 *1826:B1_N *1842:B 2.93845e-05
9 *1841:A *316:21 0.00012901
10 *1881:B1 *1842:B 3.22879e-05
11 *2094:A *1842:B 0.000228909
12 *263:8 *1842:B 7.06229e-05
13 *296:22 *316:21 0
14 *302:10 *1842:B 4.33845e-05
15 *306:8 *316:21 3.92407e-05
*RES
1 *1840:Y *1842:B 47.7432 
2 *1842:B *316:21 33.3143 
3 *316:21 *1841:B 23 
*END

*D_NET *317 6.69045e-05
*CONN
*I *1878:B1 I *D sky130_fd_sc_hd__a21oi_2
*I *1841:Y O *D sky130_fd_sc_hd__nor2_2
*CAP
1 *1878:B1 3.34522e-05
2 *1841:Y 3.34522e-05
*RES
1 *1841:Y *1878:B1 46.6214 
*END

*D_NET *318 0.000815854
*CONN
*I *1878:A1 I *D sky130_fd_sc_hd__a21oi_2
*I *1843:B I *D sky130_fd_sc_hd__xnor2_2
*I *1842:X O *D sky130_fd_sc_hd__xor2_2
*CAP
1 *1878:A1 0.000254353
2 *1843:B 0.000122646
3 *1842:X 0
4 *318:6 0.000376999
5 *296:22 *1843:B 0
6 *296:22 *1878:A1 6.18548e-05
7 *316:21 *1878:A1 0
*RES
1 *1842:X *318:6 38 
2 *318:6 *1843:B 40.2579 
3 *318:6 *1878:A1 43.0543 
*END

*D_NET *319 0.00466143
*CONN
*I *1855:A I *D sky130_fd_sc_hd__xnor2_2
*I *1854:A I *D sky130_fd_sc_hd__nor2_2
*I *1843:Y O *D sky130_fd_sc_hd__xnor2_2
*CAP
1 *1855:A 3.41077e-05
2 *1854:A 0
3 *1843:Y 0.00134437
4 *319:16 0.000141624
5 *319:10 0.000728538
6 *319:8 0.00189717
7 *319:8 *1896:A 2.93845e-05
8 *319:8 *1899:A 9.91798e-05
9 *319:8 *1918:A2 9.91798e-05
10 *319:8 *323:14 7.88926e-05
11 *319:8 *371:6 2.93747e-05
12 *319:10 *374:10 0.000153145
13 *319:16 *1854:B 0
14 *1918:A1 *319:8 2.64616e-05
*RES
1 *1843:Y *319:8 41.6221 
2 *319:8 *319:10 11.1029 
3 *319:10 *319:16 32.61 
4 *319:16 *1854:A 23 
5 *319:10 *1855:A 23.6214 
*END

*D_NET *320 0.00129093
*CONN
*I *1897:A2 I *D sky130_fd_sc_hd__o21ai_2
*I *1898:A2 I *D sky130_fd_sc_hd__o211ai_2
*I *1844:X O *D sky130_fd_sc_hd__or2_2
*CAP
1 *1897:A2 0.000141182
2 *1898:A2 0
3 *1844:X 0.000336785
4 *320:10 0.000477966
5 *1897:A2 *1852:B 9.84794e-05
6 *1897:A2 *327:14 0
7 *1897:A2 *373:8 0
8 *320:10 *327:14 0
9 *1897:A1 *1897:A2 5.50049e-05
10 *281:19 *1897:A2 6.07611e-06
11 *281:19 *320:10 8.51329e-05
12 *281:30 *1897:A2 9.03054e-05
*RES
1 *1844:X *320:10 43.2614 
2 *320:10 *1898:A2 38 
3 *320:10 *1897:A2 41.7079 
*END

*D_NET *321 0.000983199
*CONN
*I *1853:A I *D sky130_fd_sc_hd__xnor2_2
*I *1845:X O *D sky130_fd_sc_hd__a21o_2
*CAP
1 *1853:A 0
2 *1845:X 0.00046611
3 *321:10 0.00046611
4 *321:10 *352:13 0
5 *1845:A1 *321:10 1.02949e-05
6 *1845:B1 *321:10 4.06849e-05
*RES
1 *1845:X *321:10 45.7264 
2 *321:10 *1853:A 38 
*END

*D_NET *322 0.00150918
*CONN
*I *1848:B1 I *D sky130_fd_sc_hd__o21a_2
*I *1846:X O *D sky130_fd_sc_hd__a22o_2
*CAP
1 *1848:B1 0
2 *1846:X 0.000248979
3 *322:8 0.000248979
4 *322:8 *1799:A 0.000141879
5 *322:8 *1847:A 6.7911e-05
6 *322:8 *452:62 0.000117235
7 *322:8 *453:73 0.000138082
8 *322:8 *470:24 0.000301419
9 *1800:A2 *322:8 1.99391e-05
10 *1848:A1 *322:8 1.08681e-05
11 *1918:A1 *322:8 1.34041e-05
12 *190:10 *322:8 6.70363e-05
13 *276:19 *322:8 5.90251e-05
14 *276:30 *322:8 7.4425e-05
*RES
1 *1846:X *322:8 47.3007 
2 *322:8 *1848:B1 38 
*END

*D_NET *323 0.000788581
*CONN
*I *1848:A2 I *D sky130_fd_sc_hd__o21a_2
*I *1918:B1 I *D sky130_fd_sc_hd__a21o_2
*I *1847:Y O *D sky130_fd_sc_hd__nand2_2
*CAP
1 *1848:A2 0
2 *1918:B1 0
3 *1847:Y 6.62087e-05
4 *323:14 0.000216808
5 *323:6 0.000283017
6 *323:6 *1847:B 0.000143655
7 *1918:A1 *323:14 0
8 *319:8 *323:14 7.88926e-05
*RES
1 *1847:Y *323:6 24.5743 
2 *323:6 *323:14 34.1843 
3 *323:14 *1918:B1 23 
4 *323:6 *1848:A2 23 
*END

*D_NET *324 0.000751141
*CONN
*I *1849:B1 I *D sky130_fd_sc_hd__o21ai_2
*I *1850:C I *D sky130_fd_sc_hd__or3_2
*I *1848:X O *D sky130_fd_sc_hd__o21a_2
*CAP
1 *1849:B1 0
2 *1850:C 0
3 *1848:X 8.90737e-05
4 *324:14 9.99095e-05
5 *324:6 0.000188983
6 *324:6 *1847:B 1.59094e-05
7 *324:14 *370:10 2.64616e-05
8 *324:14 *383:12 0.000164291
9 *324:14 *470:16 0.000166513
*RES
1 *1848:X *324:6 24.0979 
2 *324:6 *324:14 32.8793 
3 *324:14 *1850:C 23 
4 *324:6 *1849:B1 23 
*END

*D_NET *325 0.00133332
*CONN
*I *1896:A I *D sky130_fd_sc_hd__xnor2_2
*I *1918:A2 I *D sky130_fd_sc_hd__a21o_2
*I *1851:A I *D sky130_fd_sc_hd__and2_2
*I *1849:Y O *D sky130_fd_sc_hd__o21ai_2
*CAP
1 *1896:A 2.50879e-05
2 *1918:A2 9.43638e-05
3 *1851:A 0.000151564
4 *1849:Y 0
5 *325:21 0.000200667
6 *325:6 0.000232779
7 *1851:A *1851:B 5.70419e-05
8 *1851:A *370:10 0.00015053
9 *1851:A *383:12 2.04774e-05
10 *325:21 *370:10 8.76088e-05
11 *325:21 *383:12 6.21538e-05
12 *1849:A2 *1851:A 0
13 *1850:B *1851:A 1.03955e-05
14 *275:25 *1851:A 1.32314e-05
15 *275:31 *1851:A 9.88575e-05
16 *319:8 *1896:A 2.93845e-05
17 *319:8 *1918:A2 9.91798e-05
*RES
1 *1849:Y *325:6 38 
2 *325:6 *1851:A 42.8886 
3 *325:6 *325:21 17.61 
4 *325:21 *1918:A2 25.0507 
5 *325:21 *1896:A 23.6214 
*END

*D_NET *326 0.000419653
*CONN
*I *1851:B I *D sky130_fd_sc_hd__and2_2
*I *1850:X O *D sky130_fd_sc_hd__or3_2
*CAP
1 *1851:B 0.000110329
2 *1850:X 0.000110329
3 *1850:B *1851:B 0.000141954
4 *1851:A *1851:B 5.70419e-05
5 *275:25 *1851:B 0
*RES
1 *1850:X *1851:B 48.9 
*END

*D_NET *327 0.00149286
*CONN
*I *1898:B1 I *D sky130_fd_sc_hd__o211ai_2
*I *1852:B I *D sky130_fd_sc_hd__xor2_2
*I *1897:B1 I *D sky130_fd_sc_hd__o21ai_2
*I *1851:X O *D sky130_fd_sc_hd__and2_2
*CAP
1 *1898:B1 0
2 *1852:B 0.000214994
3 *1897:B1 9.52473e-05
4 *1851:X 0.000185168
5 *327:14 0.000408327
6 *327:8 0.000283254
7 *327:14 *371:12 1.47563e-05
8 *327:14 *373:8 0.000141879
9 *1897:A1 *1852:B 5.07587e-05
10 *1897:A2 *1852:B 9.84794e-05
11 *1897:A2 *327:14 0
12 *320:10 *327:14 0
*RES
1 *1851:X *327:8 26.5007 
2 *327:8 *327:14 32.2579 
3 *327:14 *1897:B1 24.0979 
4 *327:14 *1852:B 3.90464 
5 *327:8 *1898:B1 23 
*END

*D_NET *328 0.000118198
*CONN
*I *1853:B I *D sky130_fd_sc_hd__xnor2_2
*I *1852:X O *D sky130_fd_sc_hd__xor2_2
*CAP
1 *1853:B 5.90989e-05
2 *1852:X 5.90989e-05
*RES
1 *1852:X *1853:B 47.0979 
*END

*D_NET *329 0.000671332
*CONN
*I *1854:B I *D sky130_fd_sc_hd__nor2_2
*I *1855:B I *D sky130_fd_sc_hd__xnor2_2
*I *1853:Y O *D sky130_fd_sc_hd__xnor2_2
*CAP
1 *1854:B 0.000168954
2 *1855:B 0
3 *1853:Y 0.000152025
4 *329:8 0.000320979
5 *1854:B *1905:A_N 0
6 *1854:B *330:6 2.93747e-05
7 *329:8 *1905:A_N 0
8 *329:8 *340:28 0
9 *319:16 *1854:B 0
*RES
1 *1853:Y *329:8 40.9621 
2 *329:8 *1855:B 38 
3 *329:8 *1854:B 41.2314 
*END

*D_NET *330 0.00107243
*CONN
*I *1904:A I *D sky130_fd_sc_hd__or3b_4
*I *1903:A1 I *D sky130_fd_sc_hd__o21ba_2
*I *1854:Y O *D sky130_fd_sc_hd__nor2_2
*CAP
1 *1904:A 0.000103106
2 *1903:A1 0
3 *1854:Y 0.000127645
4 *330:14 0.000170446
5 *330:6 0.000401197
6 *1904:A *379:10 4.37033e-05
7 *330:14 *1903:A2 0.00010018
8 *330:14 *341:17 0
9 *330:14 *377:19 8.26672e-05
10 *330:14 *378:8 1.41077e-05
11 *1854:B *330:6 2.93747e-05
*RES
1 *1854:Y *330:6 25.0507 
2 *330:6 *330:14 33.8321 
3 *330:14 *1903:A1 23 
4 *330:6 *1904:A 25.0714 
*END

*D_NET *331 0.00195563
*CONN
*I *1865:A I *D sky130_fd_sc_hd__nor2_2
*I *1866:A I *D sky130_fd_sc_hd__xnor2_2
*I *1855:Y O *D sky130_fd_sc_hd__xnor2_2
*CAP
1 *1865:A 0.000106929
2 *1866:A 0.000128408
3 *1855:Y 0.000175372
4 *331:8 0.000410709
5 *1865:A *1905:B 0.000139647
6 *1865:A *1927:A2 0.000242926
7 *1865:A *340:28 0.00037243
8 *1866:A *1905:B 6.48049e-05
9 *1866:A *340:28 0.000277705
10 *1866:A *380:8 1.02387e-05
11 *1866:A *381:8 0
12 *331:8 *1905:A_N 2.64616e-05
*RES
1 *1855:Y *331:8 40.0507 
2 *331:8 *1866:A 42.0186 
3 *331:8 *1865:A 43.075 
*END

*D_NET *332 0.000602681
*CONN
*I *1858:B1 I *D sky130_fd_sc_hd__o21a_2
*I *1856:X O *D sky130_fd_sc_hd__a22o_2
*CAP
1 *1858:B1 0
2 *1856:X 0.000152909
3 *332:10 0.000152909
4 *332:10 *1856:A2 2.43944e-05
5 *332:10 *333:14 0.000111276
6 *332:10 *448:28 1.9899e-05
7 *233:23 *332:10 0.000141294
*RES
1 *1856:X *332:10 41.0036 
2 *332:10 *1858:B1 38 
*END

*D_NET *333 0.00138598
*CONN
*I *1908:B1 I *D sky130_fd_sc_hd__a21o_2
*I *1858:A2 I *D sky130_fd_sc_hd__o21a_2
*I *1857:Y O *D sky130_fd_sc_hd__nand2_2
*CAP
1 *1908:B1 0.000127566
2 *1858:A2 0
3 *1857:Y 0
4 *333:14 0.000244716
5 *333:4 0.000372282
6 *1908:B1 *1857:A 1.24376e-05
7 *1908:B1 *382:10 2.53095e-05
8 *333:14 *1857:A 5.3304e-05
9 *333:14 *448:28 0.000163272
10 *333:14 *449:23 0.000163102
11 *333:14 *449:40 4.16051e-06
12 *333:14 *466:67 5.511e-05
13 *1858:A1 *333:14 2.64616e-05
14 *233:23 *333:14 2.6977e-05
15 *332:10 *333:14 0.000111276
*RES
1 *1857:Y *333:4 23 
2 *333:4 *333:14 35.9657 
3 *333:14 *1858:A2 23 
4 *333:4 *1908:B1 25.5479 
*END

*D_NET *334 0.00127989
*CONN
*I *1860:C I *D sky130_fd_sc_hd__or3_2
*I *1859:B1 I *D sky130_fd_sc_hd__o21ai_2
*I *1858:X O *D sky130_fd_sc_hd__o21a_2
*CAP
1 *1860:C 0.000208805
2 *1859:B1 0
3 *1858:X 0.000162224
4 *334:12 0.000208805
5 *334:10 0.000162224
6 *334:10 *466:52 0.000220404
7 *1858:A1 *334:10 1.41077e-05
8 *1859:A1 *1860:C 3.26241e-05
9 *1859:A2 *1860:C 1.45632e-05
10 *1860:B *1860:C 1.76213e-05
11 *1908:A1 *334:10 7.52305e-05
12 *233:23 *1860:C 0.000163285
*RES
1 *1858:X *334:10 41.3557 
2 *334:10 *334:12 15 
3 *334:12 *1859:B1 23 
4 *334:12 *1860:C 27.6193 
*END

*D_NET *335 0.00130472
*CONN
*I *1872:A I *D sky130_fd_sc_hd__xnor2_2
*I *1861:A I *D sky130_fd_sc_hd__and2_2
*I *1908:A2 I *D sky130_fd_sc_hd__a21o_2
*I *1859:Y O *D sky130_fd_sc_hd__o21ai_2
*CAP
1 *1872:A 0
2 *1861:A 0
3 *1908:A2 0
4 *1859:Y 8.77279e-05
5 *335:27 0.000122903
6 *335:21 0.000264847
7 *335:12 0.000209585
8 *335:8 0.000155369
9 *335:8 *346:8 6.5117e-06
10 *335:8 *466:52 4.41821e-06
11 *335:12 *382:10 2.34195e-05
12 *335:21 *1872:B 0.000100486
13 *335:21 *382:10 3.19411e-05
14 *335:27 *336:10 4.09501e-05
15 *335:27 *382:10 0.000141038
16 *1908:A1 *335:8 0.000115526
*RES
1 *1859:Y *335:8 39.9057 
2 *335:8 *335:12 16.0979 
3 *335:12 *1908:A2 23 
4 *335:12 *335:21 3.02429 
5 *335:21 *335:27 32.9621 
6 *335:27 *1861:A 23 
7 *335:21 *1872:A 23 
*END

*D_NET *336 0.000761011
*CONN
*I *1861:B I *D sky130_fd_sc_hd__and2_2
*I *1860:X O *D sky130_fd_sc_hd__or3_2
*CAP
1 *1861:B 0
2 *1860:X 0.000290657
3 *336:10 0.000290657
4 *336:10 *382:10 0.000138747
5 *335:27 *336:10 4.09501e-05
*RES
1 *1860:X *336:10 43.6964 
2 *336:10 *1861:B 38 
*END

*D_NET *337 0.0050465
*CONN
*I *1862:B I *D sky130_fd_sc_hd__xnor2_2
*I *1874:A2 I *D sky130_fd_sc_hd__a21o_2
*I *1875:A2 I *D sky130_fd_sc_hd__o21a_4
*I *1873:A2 I *D sky130_fd_sc_hd__a21o_2
*I *1861:X O *D sky130_fd_sc_hd__and2_2
*CAP
1 *1862:B 2.15221e-05
2 *1874:A2 0
3 *1875:A2 0
4 *1873:A2 0.000155217
5 *1861:X 0.00139429
6 *337:34 0.000139598
7 *337:16 0.000260188
8 *337:10 0.00161734
9 *337:10 *1877:A 1.90678e-05
10 *337:10 *1909:A 3.06803e-05
11 *337:10 *1909:B 5.76359e-05
12 *337:10 *349:10 4.98398e-05
13 *337:10 *350:30 0.000155544
14 *337:10 *352:7 1.26547e-05
15 *337:16 *348:10 0.000140875
16 *1657:A *337:16 8.91405e-05
17 *1862:A *1862:B 7.50355e-05
18 *1862:A *337:16 3.2865e-05
19 *1862:A *337:34 0.000100486
20 *1873:A1 *1873:A2 0.000275411
21 *1874:A1 *1862:B 0.000147656
22 *1874:A1 *337:34 2.50118e-05
23 *134:8 *337:16 1.7403e-05
24 *134:12 *1873:A2 0.000223288
25 *235:25 *337:16 5.75756e-06
*RES
1 *1861:X *337:10 42.2436 
2 *337:10 *337:16 32.9621 
3 *337:16 *1873:A2 27.93 
4 *337:16 *1875:A2 23 
5 *337:10 *337:34 2.54786 
6 *337:34 *1874:A2 23 
7 *337:34 *1862:B 24.5743 
*END

*D_NET *338 0.000225307
*CONN
*I *1864:A I *D sky130_fd_sc_hd__xnor2_2
*I *1862:Y O *D sky130_fd_sc_hd__xnor2_2
*CAP
1 *1864:A 0
2 *1862:Y 7.8107e-05
3 *338:8 7.8107e-05
4 *221:8 *338:8 6.90927e-05
*RES
1 *1862:Y *338:8 39.9057 
2 *338:8 *1864:A 38 
*END

*D_NET *339 0.00120827
*CONN
*I *1864:B I *D sky130_fd_sc_hd__xnor2_2
*I *1863:Y O *D sky130_fd_sc_hd__a21oi_2
*CAP
1 *1864:B 0
2 *1863:Y 0.00033804
3 *339:10 0.00033804
4 *1863:A1 *339:10 0.000190896
5 *1874:A1 *339:10 0.000221513
6 *129:23 *339:10 1.43261e-05
7 *134:20 *339:10 0.00010546
*RES
1 *1863:Y *339:10 46.1614 
2 *339:10 *1864:B 38 
*END

*D_NET *340 0.00915795
*CONN
*I *1865:B I *D sky130_fd_sc_hd__nor2_2
*I *1866:B I *D sky130_fd_sc_hd__xnor2_2
*I *1864:Y O *D sky130_fd_sc_hd__xnor2_2
*CAP
1 *1865:B 0
2 *1866:B 0.000332497
3 *1864:Y 9.63267e-05
4 *340:28 0.000224954
5 *340:10 0.00220642
6 *340:8 0.0021952
7 *340:10 *1818:B 0.000403033
8 *340:10 *381:8 0.000709807
9 *340:10 *481:10 7.28526e-05
10 *340:10 *483:10 7.28526e-05
11 *340:10 *484:8 0.000206405
12 *340:10 *486:10 0.000222193
13 *340:10 *511:8 0.000326992
14 *340:28 *1905:A_N 0.000435013
15 y[2] *340:10 8.02925e-05
16 *1744:B *340:10 0
17 *1764:B *340:10 0
18 *1815:A *340:10 7.38527e-05
19 *1815:B *340:10 0.000440396
20 *1817:A1 *340:10 0
21 *1819:A1 *340:10 0
22 *1865:A *340:28 0.00037243
23 *1866:A *340:28 0.000277705
24 *2053:A *340:10 0
25 *29:11 *340:10 0.000210966
26 *40:8 *340:10 0
27 *43:8 *340:10 0
28 *206:10 *340:10 0
29 *221:8 *340:10 0
30 *227:8 *340:10 0
31 *228:34 *340:10 6.63801e-05
32 *291:10 *340:10 0.00013139
33 *294:8 *340:10 0
34 *329:8 *340:28 0
*RES
1 *1864:Y *340:8 39.5743 
2 *340:8 *340:10 50.8536 
3 *340:10 *1866:B 39.5743 
4 *1866:B *340:28 46.5964 
5 *340:28 *1865:B 38 
*END

*D_NET *341 0.000718523
*CONN
*I *1904:B I *D sky130_fd_sc_hd__or3b_4
*I *1903:A2 I *D sky130_fd_sc_hd__o21ba_2
*I *1865:Y O *D sky130_fd_sc_hd__nor2_2
*CAP
1 *1904:B 0
2 *1903:A2 4.09255e-05
3 *1865:Y 0
4 *341:17 0.000116172
5 *341:4 0.000157097
6 *1903:A2 *378:8 7.88828e-05
7 *341:17 *1905:A_N 0.000225265
8 *341:17 *377:19 0
9 *330:14 *1903:A2 0.00010018
10 *330:14 *341:17 0
*RES
1 *1865:Y *341:4 23 
2 *341:4 *1903:A2 24.5743 
3 *341:4 *341:17 32.9621 
4 *341:17 *1904:B 23 
*END

*D_NET *342 0.000807794
*CONN
*I *1868:B I *D sky130_fd_sc_hd__xnor2_2
*I *1867:A_N I *D sky130_fd_sc_hd__and2b_2
*I *1866:Y O *D sky130_fd_sc_hd__xnor2_2
*CAP
1 *1868:B 0.000114371
2 *1867:A_N 6.34506e-05
3 *1866:Y 0.000110774
4 *342:10 0.000177821
5 *342:8 0.000110774
6 *1868:A *1868:B 0.000230604
*RES
1 *1866:Y *342:8 39.9057 
2 *342:8 *342:10 15 
3 *342:10 *1867:A_N 24.0979 
4 *342:10 *1868:B 26.0036 
*END

*D_NET *343 0.00132965
*CONN
*I *1906:B1 I *D sky130_fd_sc_hd__a21o_4
*I *1867:X O *D sky130_fd_sc_hd__and2b_2
*CAP
1 *1906:B1 3.77894e-05
2 *1867:X 0.000343246
3 *343:10 0.000381035
4 *343:10 *344:10 0.000139647
5 *343:10 *344:20 0.000225265
6 *343:10 *381:8 7.13673e-05
7 *1868:A *343:10 0.000131304
8 *295:10 *343:10 0
*RES
1 *1867:X *343:10 45.7264 
2 *343:10 *1906:B1 38.6214 
*END

*D_NET *344 0.00148523
*CONN
*I *1870:A I *D sky130_fd_sc_hd__xor2_2
*I *1906:A2 I *D sky130_fd_sc_hd__a21o_4
*I *1868:Y O *D sky130_fd_sc_hd__xnor2_2
*CAP
1 *1870:A 0
2 *1906:A2 0
3 *1868:Y 0.000298246
4 *344:20 0.00012697
5 *344:14 0.000213202
6 *344:10 0.000384478
7 *344:10 *381:8 9.74235e-05
8 *1819:A1 *344:20 0
9 *295:10 *344:10 0
10 *295:10 *344:20 0
11 *343:10 *344:10 0.000139647
12 *343:10 *344:20 0.000225265
*RES
1 *1868:Y *344:10 43.6136 
2 *344:10 *344:14 16.0979 
3 *344:14 *344:20 32.9621 
4 *344:20 *1906:A2 23 
5 *344:14 *1870:A 23 
*END

*D_NET *345 0.00215647
*CONN
*I *2091:A I *D sky130_fd_sc_hd__buf_6
*I *1906:A1 I *D sky130_fd_sc_hd__a21o_4
*I *1869:X O *D sky130_fd_sc_hd__a21o_4
*CAP
1 *2091:A 0.000208501
2 *1906:A1 0.00025781
3 *1869:X 0.000397154
4 *345:8 0.000863466
5 *1813:B *345:8 0
6 *1819:A1 *1906:A1 4.9662e-05
7 *1819:A1 *2091:A 0
8 *1819:A2 *345:8 0
9 *1819:B1 *1906:A1 0.000185434
10 *1845:A2 *2091:A 0
11 *241:8 *345:8 0
12 *287:12 *345:8 0.000169683
13 *288:8 *2091:A 0
14 *288:8 *345:8 0
15 *295:10 *1906:A1 2.4754e-05
16 *295:10 *2091:A 0
*RES
1 *1869:X *345:8 45.8921 
2 *345:8 *1906:A1 43.4064 
3 *345:8 *2091:A 41.5836 
*END

*D_NET *346 0.00102159
*CONN
*I *1872:B I *D sky130_fd_sc_hd__xnor2_2
*I *1871:X O *D sky130_fd_sc_hd__and3_2
*CAP
1 *1872:B 2.7878e-05
2 *1871:X 0.000343317
3 *346:8 0.000371195
4 *1872:B *382:10 3.46302e-05
5 *1908:A1 *346:8 0.000137577
6 *335:8 *346:8 6.5117e-06
7 *335:21 *1872:B 0.000100486
*RES
1 *1871:X *346:8 42.7229 
2 *346:8 *1872:B 39.0979 
*END

*D_NET *347 0.00121636
*CONN
*I *1877:A I *D sky130_fd_sc_hd__xor2_4
*I *1876:A I *D sky130_fd_sc_hd__nand2_2
*I *1872:Y O *D sky130_fd_sc_hd__xnor2_2
*CAP
1 *1877:A 0.000157592
2 *1876:A 0
3 *1872:Y 0.000241872
4 *347:12 0.000157592
5 *347:10 0.000241872
6 *1877:A *350:30 7.22343e-05
7 *347:10 *455:49 0.000220674
8 *347:10 *480:12 0.00010546
9 *337:10 *1877:A 1.90678e-05
*RES
1 *1872:Y *347:10 43.0129 
2 *347:10 *347:12 15 
3 *347:12 *1876:A 23 
4 *347:12 *1877:A 26.045 
*END

*D_NET *348 0.000718269
*CONN
*I *1874:B1 I *D sky130_fd_sc_hd__a21o_2
*I *1873:X O *D sky130_fd_sc_hd__a21o_2
*CAP
1 *1874:B1 0
2 *1873:X 0.000189193
3 *348:10 0.000189193
4 *1657:A *348:10 7.6774e-06
5 *1862:A *348:10 0.000113398
6 *134:12 *348:10 7.79323e-05
7 *337:16 *348:10 0.000140875
*RES
1 *1873:X *348:10 41.8321 
2 *348:10 *1874:B1 38 
*END

*D_NET *349 0.000556717
*CONN
*I *1875:B1 I *D sky130_fd_sc_hd__o21a_4
*I *1874:X O *D sky130_fd_sc_hd__a21o_2
*CAP
1 *1875:B1 0
2 *1874:X 0.00014951
3 *349:10 0.00014951
4 *1657:A *349:10 0.000129647
5 *131:14 *349:10 6.68282e-05
6 *134:8 *349:10 1.13812e-05
7 *337:10 *349:10 4.98398e-05
*RES
1 *1874:X *349:10 41.0036 
2 *349:10 *1875:B1 38 
*END

*D_NET *350 0.00128423
*CONN
*I *1876:B I *D sky130_fd_sc_hd__nand2_2
*I *1877:B I *D sky130_fd_sc_hd__xor2_4
*I *1875:X O *D sky130_fd_sc_hd__o21a_4
*CAP
1 *1876:B 0
2 *1877:B 0.000181213
3 *1875:X 0.000347013
4 *350:30 0.000181213
5 *350:10 0.000347013
6 *1877:A *350:30 7.22343e-05
7 *337:10 *350:30 0.000155544
*RES
1 *1875:X *350:10 44.4421 
2 *350:10 *1877:B 38 
3 *1877:B *350:30 28.0957 
4 *350:30 *1876:B 23 
*END

*D_NET *351 0.000167994
*CONN
*I *1909:A I *D sky130_fd_sc_hd__nand2_2
*I *1876:Y O *D sky130_fd_sc_hd__nand2_2
*CAP
1 *1909:A 6.86571e-05
2 *1876:Y 6.86571e-05
3 *337:10 *1909:A 3.06803e-05
*RES
1 *1876:Y *1909:A 47.0979 
*END

*D_NET *352 0.00975575
*CONN
*I *2083:A I *D sky130_fd_sc_hd__buf_2
*I *1902:A I *D sky130_fd_sc_hd__xnor2_2
*I *1877:X O *D sky130_fd_sc_hd__xor2_4
*CAP
1 *2083:A 0.000198791
2 *1902:A 4.24211e-05
3 *1877:X 2.97967e-05
4 *352:13 0.00146331
5 *352:11 0.00272296
6 *352:7 0.00153065
7 *2083:A *1901:B 0
8 *2083:A *2084:A 5.50106e-05
9 *2083:A *375:10 0
10 *2083:A *376:12 5.61414e-05
11 *2083:A *498:10 7.24484e-05
12 *352:13 *1901:B 0
13 *352:13 *372:8 0
14 *352:13 *374:10 0
15 *352:13 *376:12 2.76611e-06
16 *1641:A *352:11 0.000265999
17 *1644:A1 *352:11 0.00022943
18 *1657:A *352:11 0
19 *1668:A *352:11 0
20 *1721:A *352:11 1.37349e-05
21 *1721:B *352:11 0.000292205
22 *1722:B *352:11 0.000108681
23 *1723:A *352:11 8.06039e-05
24 *1723:B *352:11 0.00026916
25 *1807:B1 *352:11 0.000346225
26 *1809:B *352:13 0.000243847
27 *1811:A *352:13 4.3407e-05
28 *108:27 *352:11 0.000119828
29 *116:8 *352:11 0.000114092
30 *118:19 *352:11 0
31 *121:10 *352:11 0
32 *131:14 *352:11 7.6774e-06
33 *132:21 *352:11 5.0518e-05
34 *133:12 *352:11 4.90994e-05
35 *135:8 *352:11 0
36 *144:10 *352:11 0
37 *145:8 *352:11 0
38 *147:10 *352:11 0.000380342
39 *148:10 *352:11 0
40 *148:23 *352:11 0
41 *199:8 *352:11 4.49124e-05
42 *273:12 *352:13 1.69668e-05
43 *274:8 *352:11 0
44 *281:19 *352:13 0
45 *281:30 *352:13 0
46 *283:12 *352:13 0.00025307
47 *284:10 *352:11 5.62433e-06
48 *284:10 *352:13 0.000555351
49 *285:8 *352:13 7.80251e-05
50 *321:10 *352:13 0
51 *337:10 *352:7 1.26547e-05
*RES
1 *1877:X *352:7 15.5489 
2 *352:7 *352:11 35.1004 
3 *352:11 *352:13 27.4361 
4 *352:13 *1902:A 38.6214 
5 *352:13 *2083:A 42.6607 
*END

*D_NET *353 0.000407204
*CONN
*I *1894:A I *D sky130_fd_sc_hd__xor2_2
*I *1910:A1 I *D sky130_fd_sc_hd__o21a_2
*I *1878:Y O *D sky130_fd_sc_hd__a21oi_2
*CAP
1 *1894:A 4.56369e-05
2 *1910:A1 0
3 *1878:Y 0.000108722
4 *353:10 4.56369e-05
5 *353:8 0.000108722
6 *1894:A *1894:B 9.84851e-05
7 *353:8 *1892:A 0
*RES
1 *1878:Y *353:8 39.9057 
2 *353:8 *353:10 15 
3 *353:10 *1910:A1 23 
4 *353:10 *1894:A 24.0979 
*END

*D_NET *354 0.00069044
*CONN
*I *1880:B I *D sky130_fd_sc_hd__xnor2_2
*I *1879:X O *D sky130_fd_sc_hd__and3_2
*CAP
1 *1880:B 1.50079e-05
2 *1879:X 0.0001306
3 *354:10 0.000145608
4 *1880:B *385:8 5.50049e-05
5 *354:10 *387:18 5.50049e-05
6 *354:10 *514:10 0.000136486
7 *354:10 *514:70 0
8 *1911:A1 *354:10 8.62783e-05
9 *1911:A2 *1880:B 5.50049e-05
10 *259:34 *354:10 1.14452e-05
*RES
1 *1879:X *354:10 40.5271 
2 *354:10 *1880:B 38.6214 
*END

*D_NET *355 0.00153944
*CONN
*I *1882:A I *D sky130_fd_sc_hd__nand2_2
*I *1883:A I *D sky130_fd_sc_hd__xnor2_2
*I *1880:Y O *D sky130_fd_sc_hd__xnor2_2
*CAP
1 *1882:A 0.000149593
2 *1883:A 0.000139882
3 *1880:Y 0.000215418
4 *355:8 0.000504893
5 *1882:A *1882:B 3.2203e-05
6 *1882:A *1915:B 2.76611e-06
7 *1882:A *357:8 0.000168754
8 *1882:A *358:8 0
9 *1882:A *366:12 0
10 *1883:A *1882:B 4.23714e-05
11 *1883:A *1915:B 3.31683e-05
12 *1883:A *387:18 5.50049e-05
13 *355:8 *366:8 5.79042e-05
14 *355:8 *385:8 0.000131304
15 *355:8 *386:6 6.17437e-06
*RES
1 *1880:Y *355:8 42.4329 
2 *355:8 *1883:A 41.0243 
3 *355:8 *1882:A 41.6664 
*END

*D_NET *356 0.00208938
*CONN
*I *1882:B I *D sky130_fd_sc_hd__nand2_2
*I *1883:B I *D sky130_fd_sc_hd__xnor2_2
*I *1881:Y O *D sky130_fd_sc_hd__a21oi_2
*CAP
1 *1882:B 0.000370976
2 *1883:B 0
3 *1881:Y 0.000346631
4 *356:10 0.000717607
5 *1882:B *357:8 8.16253e-05
6 *1882:B *514:8 3.7122e-06
7 *1881:B1 *356:10 0.000197479
8 *1882:A *1882:B 3.2203e-05
9 *1883:A *1882:B 4.23714e-05
10 *263:8 *356:10 5.50106e-05
11 *263:14 *356:10 9.98995e-05
12 *304:10 *356:10 0.000141869
*RES
1 *1881:Y *356:10 46.5136 
2 *356:10 *1883:B 38 
3 *356:10 *1882:B 45.2293 
*END

*D_NET *357 0.000382936
*CONN
*I *1912:A I *D sky130_fd_sc_hd__nand2_2
*I *1882:Y O *D sky130_fd_sc_hd__nand2_2
*CAP
1 *1912:A 0
2 *1882:Y 6.62787e-05
3 *357:8 6.62787e-05
4 *1882:A *357:8 0.000168754
5 *1882:B *357:8 8.16253e-05
*RES
1 *1882:Y *357:8 40.2579 
2 *357:8 *1912:A 38 
*END

*D_NET *358 0.00025962
*CONN
*I *1884:A I *D sky130_fd_sc_hd__inv_2
*I *1883:Y O *D sky130_fd_sc_hd__xnor2_2
*CAP
1 *1884:A 0
2 *1883:Y 7.85484e-05
3 *358:8 7.85484e-05
4 *358:8 *1915:B 3.31683e-05
5 *358:8 *366:12 6.93553e-05
6 *1882:A *358:8 0
*RES
1 *1883:Y *358:8 39.9057 
2 *358:8 *1884:A 38 
*END

*D_NET *359 0.00139743
*CONN
*I *1893:A I *D sky130_fd_sc_hd__xnor2_2
*I *1892:A I *D sky130_fd_sc_hd__nand2_2
*I *1884:Y O *D sky130_fd_sc_hd__inv_2
*CAP
1 *1893:A 6.80978e-05
2 *1892:A 0.000182787
3 *1884:Y 0.000346739
4 *359:10 0.000597624
5 *1892:A *1892:B 0
6 *1892:A *1916:A_N 0
7 *1892:A *366:12 0
8 *1892:A *368:10 0
9 *359:10 *1915:B 0.000184527
10 *359:10 *1916:A_N 0
11 *359:10 *366:12 0
12 *359:10 *386:6 1.76557e-05
13 *353:8 *1892:A 0
*RES
1 *1884:Y *359:10 43.3857 
2 *359:10 *1892:A 41.3143 
3 *359:10 *1893:A 39.0979 
*END

*D_NET *360 0.00234433
*CONN
*I *1887:B I *D sky130_fd_sc_hd__xnor2_2
*I *1886:B I *D sky130_fd_sc_hd__and2b_2
*I *1885:X O *D sky130_fd_sc_hd__and3_2
*CAP
1 *1887:B 0.000145754
2 *1886:B 0
3 *1885:X 0.000435274
4 *360:10 0.000581029
5 *1887:B *364:14 6.43005e-05
6 *360:10 *364:14 0.000229945
7 *360:10 *485:103 2.31797e-05
8 *1836:A *360:10 1.76557e-05
9 *1836:C *360:10 4.96717e-05
10 *1887:A *1887:B 0.000151769
11 *1887:A *360:10 8.24662e-05
12 *309:18 *360:10 0
13 *309:33 *1887:B 1.94812e-05
14 *311:12 *360:10 6.17437e-06
15 *312:8 *360:10 0.000537632
*RES
1 *1885:X *360:10 48.7714 
2 *360:10 *1886:B 38 
3 *360:10 *1887:B 41.6457 
*END

*D_NET *361 0.000751965
*CONN
*I *1913:B I *D sky130_fd_sc_hd__or3_4
*I *1886:X O *D sky130_fd_sc_hd__and2b_2
*CAP
1 *1913:B 0
2 *1886:X 0.000346727
3 *361:10 0.000346727
4 *1838:A *361:10 3.71369e-05
5 *1838:B *361:10 2.13733e-05
6 *1887:A *361:10 0
*RES
1 *1886:X *361:10 43.0336 
2 *361:10 *1913:B 38 
*END

*D_NET *362 0.0005985
*CONN
*I *1891:A I *D sky130_fd_sc_hd__xor2_2
*I *1890:A I *D sky130_fd_sc_hd__and2_4
*I *1887:Y O *D sky130_fd_sc_hd__xnor2_2
*CAP
1 *1891:A 5.37032e-05
2 *1890:A 0
3 *1887:Y 9.08733e-05
4 *362:10 5.37032e-05
5 *362:8 9.08733e-05
6 *1891:A *1891:B 0.00014196
7 *1891:A *365:10 5.3304e-05
8 *362:8 *364:14 0
9 *362:8 *365:10 0.000114083
*RES
1 *1887:Y *362:8 39.9057 
2 *362:8 *362:10 15 
3 *362:10 *1890:A 23 
4 *362:10 *1891:A 24.5743 
*END

*D_NET *363 0.000681428
*CONN
*I *1889:B1 I *D sky130_fd_sc_hd__o21a_4
*I *1888:X O *D sky130_fd_sc_hd__a211o_4
*CAP
1 *1889:B1 0.000219221
2 *1888:X 8.62996e-05
3 *363:8 0.00030552
4 *1838:A *363:8 7.03869e-05
5 *1888:C1 *363:8 0
*RES
1 *1888:X *363:8 39.9057 
2 *363:8 *1889:B1 41.48 
*END

*D_NET *364 0.00258289
*CONN
*I *1891:B I *D sky130_fd_sc_hd__xor2_2
*I *1890:B I *D sky130_fd_sc_hd__and2_4
*I *1889:X O *D sky130_fd_sc_hd__o21a_4
*CAP
1 *1891:B 0.000135768
2 *1890:B 0
3 *1889:X 7.24195e-05
4 *364:14 0.000766097
5 *364:8 0.000702748
6 *1891:B *365:10 1.56665e-05
7 *364:14 *365:10 0.000230604
8 *1887:A *364:14 1.94522e-05
9 *1887:B *364:14 6.43005e-05
10 *1891:A *1891:B 0.00014196
11 *309:18 *364:14 0.000203929
12 *309:33 *364:14 0
13 *360:10 *364:14 0.000229945
14 *362:8 *364:14 0
*RES
1 *1889:X *364:8 39.0979 
2 *364:8 *364:14 30.0179 
3 *364:14 *1890:B 23 
4 *364:14 *1891:B 3.44893 
*END

*D_NET *365 0.00095321
*CONN
*I *1913:C I *D sky130_fd_sc_hd__or3_4
*I *1890:X O *D sky130_fd_sc_hd__and2_4
*CAP
1 *1913:C 0
2 *1890:X 0.000269776
3 *365:10 0.000269776
4 *1887:A *365:10 0
5 *1891:A *365:10 5.3304e-05
6 *1891:B *365:10 1.56665e-05
7 *362:8 *365:10 0.000114083
8 *364:14 *365:10 0.000230604
*RES
1 *1890:X *365:10 43.7379 
2 *365:10 *1913:C 38 
*END

*D_NET *366 0.0046693
*CONN
*I *1893:B I *D sky130_fd_sc_hd__xnor2_2
*I *1892:B I *D sky130_fd_sc_hd__nand2_2
*I *1891:X O *D sky130_fd_sc_hd__xor2_2
*CAP
1 *1893:B 4.24211e-05
2 *1892:B 0.000253563
3 *1891:X 0.00104368
4 *366:12 0.000497152
5 *366:8 0.00124484
6 *366:8 *385:8 0.00101054
7 *366:8 *386:6 0.000357631
8 *366:8 *514:70 4.56101e-05
9 *366:12 *387:41 0
10 *1882:A *366:12 0
11 *1892:A *1892:B 0
12 *1892:A *366:12 0
13 *1911:B1 *366:8 4.66047e-05
14 *355:8 *366:8 5.79042e-05
15 *358:8 *366:12 6.93553e-05
16 *359:10 *366:12 0
*RES
1 *1891:X *366:8 45.5579 
2 *366:8 *366:12 18.6664 
3 *366:12 *1892:B 42.5364 
4 *366:12 *1893:B 38.6214 
*END

*D_NET *367 0.000227482
*CONN
*I *1910:B1 I *D sky130_fd_sc_hd__o21a_2
*I *1892:Y O *D sky130_fd_sc_hd__nand2_2
*CAP
1 *1910:B1 9.33984e-05
2 *1892:Y 9.33984e-05
3 *1910:B1 *384:10 4.06849e-05
*RES
1 *1892:Y *1910:B1 48.0507 
*END

*D_NET *368 0.000848511
*CONN
*I *1894:B I *D sky130_fd_sc_hd__xor2_2
*I *1910:A2 I *D sky130_fd_sc_hd__o21a_2
*I *1893:Y O *D sky130_fd_sc_hd__xnor2_2
*CAP
1 *1894:B 0.000107984
2 *1910:A2 0
3 *1893:Y 0.000182513
4 *368:12 0.000107984
5 *368:10 0.000182513
6 *1894:B *384:10 2.93845e-05
7 *368:10 *384:10 0.000139647
8 *1892:A *368:10 0
9 *1894:A *1894:B 9.84851e-05
*RES
1 *1893:Y *368:10 41.7079 
2 *368:10 *368:12 15 
3 *368:12 *1910:A2 23 
4 *368:12 *1894:B 2.47536 
*END

*D_NET *369 0.00286861
*CONN
*I *1901:A I *D sky130_fd_sc_hd__xor2_2
*I *1900:A I *D sky130_fd_sc_hd__and2_2
*I *1894:X O *D sky130_fd_sc_hd__xor2_2
*CAP
1 *1901:A 0
2 *1900:A 0
3 *1894:X 0.00112033
4 *369:18 0.00010715
5 *369:12 0.00122748
6 *369:12 *1932:A_N 6.51031e-05
7 *369:12 *1932:B 2.54193e-05
8 *369:12 *393:27 5.38135e-05
9 *369:12 *405:10 0.000169423
10 *369:18 *1901:B 9.3813e-05
11 *369:18 *374:10 6.07611e-06
*RES
1 *1894:X *369:12 40.835 
2 *369:12 *369:18 32.61 
3 *369:18 *1900:A 23 
4 *369:12 *1901:A 23 
*END

*D_NET *370 0.00127325
*CONN
*I *1896:B I *D sky130_fd_sc_hd__xnor2_2
*I *1895:X O *D sky130_fd_sc_hd__and3_2
*CAP
1 *1896:B 0
2 *1895:X 0.000454046
3 *370:10 0.000454046
4 *370:10 *371:12 0
5 *370:10 *470:16 8.91468e-07
6 *1849:A2 *370:10 6.79006e-05
7 *1851:A *370:10 0.00015053
8 *275:25 *370:10 3.17634e-05
9 *324:14 *370:10 2.64616e-05
10 *325:21 *370:10 8.76088e-05
*RES
1 *1895:X *370:10 46.2029 
2 *370:10 *1896:B 38 
*END

*D_NET *371 0.00123652
*CONN
*I *1899:A I *D sky130_fd_sc_hd__xnor2_2
*I *1898:C1 I *D sky130_fd_sc_hd__o211ai_2
*I *1896:Y O *D sky130_fd_sc_hd__xnor2_2
*CAP
1 *1899:A 9.56237e-05
2 *1898:C1 0
3 *1896:Y 3.09722e-05
4 *371:12 0.000214825
5 *371:6 0.000341421
6 *371:12 *373:8 0.000410369
7 *1849:A2 *371:12 0
8 *319:8 *1899:A 9.91798e-05
9 *319:8 *371:6 2.93747e-05
10 *327:14 *371:12 1.47563e-05
11 *370:10 *371:12 0
*RES
1 *1896:Y *371:6 23.6214 
2 *371:6 *371:12 35.7793 
3 *371:12 *1898:C1 23 
4 *371:6 *1899:A 25.0507 
*END

*D_NET *372 0.000265421
*CONN
*I *1899:B I *D sky130_fd_sc_hd__xnor2_2
*I *1897:Y O *D sky130_fd_sc_hd__o21ai_2
*CAP
1 *1899:B 0
2 *1897:Y 8.8906e-05
3 *372:8 8.8906e-05
4 *372:8 *373:8 8.76088e-05
5 *352:13 *372:8 0
*RES
1 *1897:Y *372:8 40.2579 
2 *372:8 *1899:B 38 
*END

*D_NET *373 0.00223279
*CONN
*I *1919:A I *D sky130_fd_sc_hd__nand2_2
*I *1898:Y O *D sky130_fd_sc_hd__o211ai_2
*CAP
1 *1919:A 0.000505982
2 *1898:Y 0.000290485
3 *373:8 0.000796467
4 *373:8 *374:10 0
5 *1897:A2 *373:8 0
6 *327:14 *373:8 0.000141879
7 *371:12 *373:8 0.000410369
8 *372:8 *373:8 8.76088e-05
*RES
1 *1898:Y *373:8 45.8921 
2 *373:8 *1919:A 46.7207 
*END

*D_NET *374 0.00146015
*CONN
*I *1901:B I *D sky130_fd_sc_hd__xor2_2
*I *1900:B I *D sky130_fd_sc_hd__and2_2
*I *1899:Y O *D sky130_fd_sc_hd__xnor2_2
*CAP
1 *1901:B 7.055e-05
2 *1900:B 0
3 *1899:Y 0.000460952
4 *374:10 0.000531502
5 *1901:B *375:10 0.00014411
6 *2083:A *1901:B 0
7 *319:10 *374:10 0.000153145
8 *352:13 *1901:B 0
9 *352:13 *374:10 0
10 *369:18 *1901:B 9.3813e-05
11 *369:18 *374:10 6.07611e-06
12 *373:8 *374:10 0
*RES
1 *1899:Y *374:10 46.0786 
2 *374:10 *1900:B 38 
3 *374:10 *1901:B 17.61 
*END

*D_NET *375 0.000688401
*CONN
*I *1924:B1 I *D sky130_fd_sc_hd__a21oi_2
*I *1900:X O *D sky130_fd_sc_hd__and2_2
*CAP
1 *1924:B1 0
2 *1900:X 0.000272146
3 *375:10 0.000272146
4 *375:10 *405:10 0
5 *375:10 *498:10 0
6 *1901:B *375:10 0.00014411
7 *2083:A *375:10 0
*RES
1 *1900:X *375:10 43.3443 
2 *375:10 *1924:B1 38 
*END

*D_NET *376 0.000744532
*CONN
*I *2084:A I *D sky130_fd_sc_hd__buf_2
*I *1902:B I *D sky130_fd_sc_hd__xnor2_2
*I *1901:X O *D sky130_fd_sc_hd__xor2_2
*CAP
1 *2084:A 0.000154899
2 *1902:B 0
3 *1901:X 0
4 *376:12 0.000147114
5 *376:4 0.000302013
6 *2084:A *498:10 2.65879e-05
7 *2083:A *2084:A 5.50106e-05
8 *2083:A *376:12 5.61414e-05
9 *352:13 *376:12 2.76611e-06
*RES
1 *1901:X *376:4 23 
2 *376:4 *376:12 32.8793 
3 *376:12 *1902:B 23 
4 *376:4 *2084:A 26.0243 
*END

*D_NET *377 0.000883067
*CONN
*I *1904:C_N I *D sky130_fd_sc_hd__or3b_4
*I *1903:B1_N I *D sky130_fd_sc_hd__o21ba_2
*I *1902:Y O *D sky130_fd_sc_hd__xnor2_2
*CAP
1 *1904:C_N 0
2 *1903:B1_N 0
3 *1902:Y 0.000238626
4 *377:19 0.000159718
5 *377:6 0.000398344
6 *377:19 *378:8 3.7122e-06
7 *330:14 *377:19 8.26672e-05
8 *341:17 *377:19 0
*RES
1 *1902:Y *377:6 27.4329 
2 *377:6 *1903:B1_N 23 
3 *377:6 *377:19 33.2314 
4 *377:19 *1904:C_N 23 
*END

*D_NET *378 0.00217397
*CONN
*I *1927:B1 I *D sky130_fd_sc_hd__a21o_4
*I *1905:A_N I *D sky130_fd_sc_hd__nand2b_2
*I *1903:X O *D sky130_fd_sc_hd__o21ba_2
*CAP
1 *1927:B1 0.000169409
2 *1905:A_N 0.000239151
3 *1903:X 0.000257321
4 *378:8 0.00066588
5 *1905:A_N *1927:A2 1.7992e-05
6 *1927:B1 *1927:A2 4.0773e-05
7 *1854:B *1905:A_N 0
8 *1903:A2 *378:8 7.88828e-05
9 *329:8 *1905:A_N 0
10 *330:14 *378:8 1.41077e-05
11 *331:8 *1905:A_N 2.64616e-05
12 *340:28 *1905:A_N 0.000435013
13 *341:17 *1905:A_N 0.000225265
14 *377:19 *378:8 3.7122e-06
*RES
1 *1903:X *378:8 41.48 
2 *378:8 *1905:A_N 45.105 
3 *378:8 *1927:B1 41.2936 
*END

*D_NET *379 0.00186165
*CONN
*I *1927:A2 I *D sky130_fd_sc_hd__a21o_4
*I *1905:B I *D sky130_fd_sc_hd__nand2b_2
*I *1904:X O *D sky130_fd_sc_hd__or3b_4
*CAP
1 *1927:A2 0.000207137
2 *1905:B 0.000113042
3 *1904:X 0.000222302
4 *379:10 0.000542482
5 *1905:B *380:8 9.74235e-05
6 *1927:A2 *1927:A1 0
7 *1927:A2 *380:8 0.000129412
8 *1927:A2 *401:8 0
9 *1865:A *1905:B 0.000139647
10 *1865:A *1927:A2 0.000242926
11 *1866:A *1905:B 6.48049e-05
12 *1904:A *379:10 4.37033e-05
13 *1905:A_N *1927:A2 1.7992e-05
14 *1927:B1 *1927:A2 4.0773e-05
*RES
1 *1904:X *379:10 41.5007 
2 *379:10 *1905:B 41.2314 
3 *379:10 *1927:A2 44.1314 
*END

*D_NET *380 0.000962031
*CONN
*I *1907:A I *D sky130_fd_sc_hd__xnor2_2
*I *1905:Y O *D sky130_fd_sc_hd__nand2b_2
*CAP
1 *1907:A 7.70667e-05
2 *1905:Y 0.000166937
3 *380:8 0.000244004
4 *380:8 *1927:A1 0.000122304
5 *380:8 *381:8 0.000114645
6 *1866:A *380:8 1.02387e-05
7 *1905:B *380:8 9.74235e-05
8 *1927:A2 *380:8 0.000129412
*RES
1 *1905:Y *380:8 44.1314 
2 *380:8 *1907:A 39.0979 
*END

*D_NET *381 0.0031757
*CONN
*I *1927:A1 I *D sky130_fd_sc_hd__a21o_4
*I *2088:A I *D sky130_fd_sc_hd__buf_6
*I *1906:X O *D sky130_fd_sc_hd__a21o_4
*CAP
1 *1927:A1 0.000397825
2 *2088:A 7.70667e-05
3 *1906:X 0
4 *381:8 0.000958724
5 *381:6 0.000483832
6 *1927:A1 *487:8 0
7 *1927:A1 *503:8 6.88552e-05
8 *381:8 *486:10 7.38527e-05
9 *1819:A1 *381:8 0
10 *1866:A *381:8 0
11 *1927:A2 *1927:A1 0
12 *340:10 *381:8 0.000709807
13 *343:10 *381:8 7.13673e-05
14 *344:10 *381:8 9.74235e-05
15 *380:8 *1927:A1 0.000122304
16 *380:8 *381:8 0.000114645
*RES
1 *1906:X *381:6 38 
2 *381:6 *381:8 14.5829 
3 *381:8 *2088:A 39.0979 
4 *381:8 *1927:A1 46.3064 
*END

*D_NET *382 0.00163295
*CONN
*I *1909:B I *D sky130_fd_sc_hd__nand2_2
*I *1908:X O *D sky130_fd_sc_hd__a21o_2
*CAP
1 *1909:B 0.000155914
2 *1908:X 0.000434201
3 *382:10 0.000590115
4 *1872:B *382:10 3.46302e-05
5 *1908:B1 *382:10 2.53095e-05
6 *335:12 *382:10 2.34195e-05
7 *335:21 *382:10 3.19411e-05
8 *335:27 *382:10 0.000141038
9 *336:10 *382:10 0.000138747
10 *337:10 *1909:B 5.76359e-05
*RES
1 *1908:X *382:10 45.2914 
2 *382:10 *1909:B 41.0243 
*END

*D_NET *383 0.0107199
*CONN
*I *1923:A I *D sky130_fd_sc_hd__xor2_2
*I *1922:A I *D sky130_fd_sc_hd__and2_4
*I *1909:Y O *D sky130_fd_sc_hd__nand2_2
*CAP
1 *1923:A 0
2 *1922:A 2.34823e-05
3 *1909:Y 0
4 *383:31 0.000266143
5 *383:16 0.000345426
6 *383:12 0.00170154
7 *383:10 0.00237316
8 *383:6 0.000727426
9 *383:10 *1678:A 0
10 *383:10 *446:38 0
11 *383:10 *447:35 5.74915e-05
12 *383:10 *447:113 2.78698e-05
13 *383:10 *450:10 0
14 *383:10 *450:19 0
15 *383:10 *450:38 0
16 *383:10 *467:27 5.76445e-05
17 *383:10 *467:42 0.000225691
18 *383:10 *480:12 0
19 *383:10 *519:84 7.31082e-05
20 *383:12 *1720:A 0
21 *383:12 *1720:B 0.000209102
22 *383:12 *1801:A1 0.000167452
23 *383:12 *450:38 0
24 *383:12 *451:10 0
25 *383:12 *451:32 0
26 *383:12 *451:60 0.000170329
27 *383:12 *451:71 0.000272321
28 *383:12 *452:10 0
29 *383:12 *467:27 2.24608e-05
30 *383:12 *467:49 0.000255856
31 *383:12 *467:60 0.000231221
32 *383:12 *467:71 0.000129504
33 *383:12 *467:86 0.000345574
34 *383:12 *469:16 0.000559124
35 *383:12 *470:10 0.000281975
36 *383:12 *470:16 8.25747e-05
37 *383:12 *470:37 0.000132162
38 *383:12 *470:39 0.000120924
39 *383:16 *2089:A 2.4754e-05
40 *383:16 *395:12 2.93845e-05
41 *383:31 *2089:A 2.93747e-05
42 *383:31 *395:8 5.26204e-05
43 *383:31 *404:24 0.000169683
44 *383:31 *470:10 0
45 *383:31 *504:8 0.000176893
46 *1800:A2 *383:12 5.93381e-05
47 *1802:C *383:12 1.47563e-05
48 *1849:A2 *383:12 0
49 *1851:A *383:12 2.04774e-05
50 *1934:B1 *383:10 0.000168754
51 *156:8 *383:10 0.000243847
52 *190:10 *383:12 0
53 *194:10 *383:12 0.000165593
54 *275:25 *383:12 0.000118015
55 *275:31 *383:12 0.000221184
56 *276:19 *383:12 6.11183e-05
57 *277:10 *383:12 7.81073e-05
58 *324:14 *383:12 0.000164291
59 *325:21 *383:12 6.21538e-05
*RES
1 *1909:Y *383:6 38 
2 *383:6 *383:10 17.1411 
3 *383:10 *383:12 45.7475 
4 *383:12 *383:16 16.0979 
5 *383:16 *1922:A 23.4971 
6 *383:16 *383:31 36.7529 
7 *383:31 *1923:A 23 
*END

*D_NET *384 0.00135928
*CONN
*I *1916:A_N I *D sky130_fd_sc_hd__and2b_2
*I *1917:B I *D sky130_fd_sc_hd__xnor2_2
*I *1910:X O *D sky130_fd_sc_hd__o21a_2
*CAP
1 *1916:A_N 0.000238802
2 *1917:B 0
3 *1910:X 0.000259911
4 *384:10 0.000498713
5 *1916:A_N *1916:B 3.34247e-05
6 *1916:A_N *389:8 3.3577e-05
7 *1916:A_N *389:14 8.51329e-05
8 *1892:A *1916:A_N 0
9 *1894:B *384:10 2.93845e-05
10 *1910:B1 *384:10 4.06849e-05
11 *359:10 *1916:A_N 0
12 *368:10 *384:10 0.000139647
*RES
1 *1910:X *384:10 42.4329 
2 *384:10 *1917:B 38 
3 *384:10 *1916:A_N 42.6607 
*END

*D_NET *385 0.00202563
*CONN
*I *1912:B I *D sky130_fd_sc_hd__nand2_2
*I *1911:X O *D sky130_fd_sc_hd__a21o_2
*CAP
1 *1912:B 0
2 *1911:X 0.000253531
3 *385:8 0.000253531
4 *1880:B *385:8 5.50049e-05
5 *1911:A1 *385:8 1.76557e-05
6 *1911:A2 *385:8 6.36209e-05
7 *1911:B1 *385:8 0.00010018
8 *303:12 *385:8 0.000140259
9 *355:8 *385:8 0.000131304
10 *366:8 *385:8 0.00101054
*RES
1 *1911:X *385:8 34.6 
2 *385:8 *1912:B 23 
*END

*D_NET *386 0.00145418
*CONN
*I *1915:A I *D sky130_fd_sc_hd__xor2_2
*I *1914:A I *D sky130_fd_sc_hd__and2_2
*I *1912:Y O *D sky130_fd_sc_hd__nand2_2
*CAP
1 *1915:A 0
2 *1914:A 0
3 *1912:Y 0.000190954
4 *386:14 0.000150906
5 *386:6 0.00034186
6 *386:6 *1915:B 0.000193749
7 *386:14 *387:41 0.000195248
8 *355:8 *386:6 6.17437e-06
9 *359:10 *386:6 1.76557e-05
10 *366:8 *386:6 0.000357631
*RES
1 *1912:Y *386:6 28.8621 
2 *386:6 *386:14 33.2314 
3 *386:14 *1914:A 23 
4 *386:6 *1915:A 23 
*END

*D_NET *387 0.00515696
*CONN
*I *1914:B I *D sky130_fd_sc_hd__and2_2
*I *1915:B I *D sky130_fd_sc_hd__xor2_2
*I *1913:X O *D sky130_fd_sc_hd__or3_4
*CAP
1 *1914:B 0
2 *1915:B 0.000374502
3 *1913:X 0.00142174
4 *387:41 0.000130088
5 *387:18 0.00166615
6 *387:18 *1823:B1 4.21378e-05
7 *387:18 *1823:B2 5.73288e-05
8 *387:18 *445:73 4.17736e-05
9 *387:18 *445:87 0.000343248
10 *387:18 *445:95 3.5536e-05
11 *387:18 *514:42 2.13733e-05
12 *387:18 *514:51 0.000224795
13 *1827:B *387:18 4.56504e-05
14 *1882:A *1915:B 2.76611e-06
15 *1883:A *1915:B 3.31683e-05
16 *1883:A *387:18 5.50049e-05
17 *354:10 *387:18 5.50049e-05
18 *358:8 *1915:B 3.31683e-05
19 *359:10 *1915:B 0.000184527
20 *366:12 *387:41 0
21 *386:6 *1915:B 0.000193749
22 *386:14 *387:41 0.000195248
*RES
1 *1913:X *387:18 46.9871 
2 *387:18 *1915:B 35.9346 
3 *1915:B *387:41 33.3143 
4 *387:41 *1914:B 23 
*END

*D_NET *388 0.00329009
*CONN
*I *1931:A I *D sky130_fd_sc_hd__or4_4
*I *1930:A1 I *D sky130_fd_sc_hd__o22a_2
*I *1914:X O *D sky130_fd_sc_hd__and2_2
*CAP
1 *1931:A 0.000168731
2 *1930:A1 0.000137927
3 *1914:X 0.000943946
4 *388:10 0.000416225
5 *388:6 0.00105351
6 *1930:A1 *1921:B 1.01436e-05
7 *1930:A1 *1930:A2 0.000166513
8 *1930:A1 *1931:B 8.02348e-05
9 *1930:A1 *393:27 0
10 *1931:A *1931:B 0.000227208
11 *1931:A *390:8 1.59094e-05
12 *1931:A *394:23 2.90148e-05
13 *1931:A *470:8 3.7122e-06
14 *388:10 *1931:B 3.70187e-05
15 *388:10 *1937:B1 0
*RES
1 *1914:X *388:6 35.5321 
2 *388:6 *388:10 16.9057 
3 *388:10 *1930:A1 41.3143 
4 *388:10 *1931:A 41.48 
*END

*D_NET *389 0.000969338
*CONN
*I *1916:B I *D sky130_fd_sc_hd__and2b_2
*I *1917:A I *D sky130_fd_sc_hd__xnor2_2
*I *1915:X O *D sky130_fd_sc_hd__xor2_2
*CAP
1 *1916:B 0.000137193
2 *1917:A 0
3 *1915:X 0.000118312
4 *389:14 0.000153097
5 *389:8 0.000408602
6 *1916:A_N *1916:B 3.34247e-05
7 *1916:A_N *389:8 3.3577e-05
8 *1916:A_N *389:14 8.51329e-05
*RES
1 *1915:X *389:8 25.0714 
2 *389:8 *389:14 33.3143 
3 *389:14 *1917:A 23 
4 *389:8 *1916:B 25.5271 
*END

*D_NET *390 0.00194492
*CONN
*I *1931:B I *D sky130_fd_sc_hd__or4_4
*I *1930:A2 I *D sky130_fd_sc_hd__o22a_2
*I *1916:X O *D sky130_fd_sc_hd__and2b_2
*CAP
1 *1931:B 0.000172524
2 *1930:A2 6.96823e-05
3 *1916:X 0.000416816
4 *390:8 0.000659022
5 *1930:A2 *1931:D 6.07929e-05
6 *1930:A2 *396:10 2.08324e-05
7 *1931:B *1931:D 1.83667e-05
8 *1931:B *1937:B1 0
9 *1931:B *394:23 0
10 *1930:A1 *1930:A2 0.000166513
11 *1930:A1 *1931:B 8.02348e-05
12 *1931:A *1931:B 0.000227208
13 *1931:A *390:8 1.59094e-05
14 *388:10 *1931:B 3.70187e-05
*RES
1 *1916:X *390:8 43.3857 
2 *390:8 *1930:A2 40.2579 
3 *390:8 *1931:B 42.0807 
*END

*D_NET *391 0.000883003
*CONN
*I *1921:B I *D sky130_fd_sc_hd__xor2_2
*I *1920:A I *D sky130_fd_sc_hd__and2_2
*I *1917:Y O *D sky130_fd_sc_hd__xnor2_2
*CAP
1 *1921:B 0.000290548
2 *1920:A 0
3 *1917:Y 8.47456e-05
4 *391:6 0.000375294
5 *1921:B *393:10 3.92407e-05
6 *1921:B *393:27 5.3656e-05
7 *1921:B *394:8 2.93747e-05
8 *1921:B *396:10 0
9 *1930:A1 *1921:B 1.01436e-05
*RES
1 *1917:Y *391:6 24.5743 
2 *391:6 *1920:A 23 
3 *391:6 *1921:B 35.4893 
*END

*D_NET *392 0.000258405
*CONN
*I *1919:B I *D sky130_fd_sc_hd__nand2_2
*I *1918:X O *D sky130_fd_sc_hd__a21o_2
*CAP
1 *1919:B 0
2 *1918:X 0.000129202
3 *392:8 0.000129202
4 *392:8 *470:10 0
*RES
1 *1918:X *392:8 40.2579 
2 *392:8 *1919:B 38 
*END

*D_NET *393 0.00156759
*CONN
*I *1920:B I *D sky130_fd_sc_hd__and2_2
*I *1921:A I *D sky130_fd_sc_hd__xor2_2
*I *1919:Y O *D sky130_fd_sc_hd__nand2_2
*CAP
1 *1920:B 0
2 *1921:A 0
3 *1919:Y 0.00041611
4 *393:27 0.000261662
5 *393:12 0.000261662
6 *393:10 0.00041611
7 *393:10 *396:10 6.53342e-05
8 *393:10 *470:10 0
9 *1921:B *393:10 3.92407e-05
10 *1921:B *393:27 5.3656e-05
11 *1930:A1 *393:27 0
12 *369:12 *393:27 5.38135e-05
*RES
1 *1919:Y *393:10 45.1257 
2 *393:10 *393:12 15 
3 *393:12 *1921:A 23 
4 *393:12 *393:27 35.1579 
5 *393:27 *1920:B 23 
*END

*D_NET *394 0.00103954
*CONN
*I *1931:C I *D sky130_fd_sc_hd__or4_4
*I *1930:B1 I *D sky130_fd_sc_hd__o22a_2
*I *1920:X O *D sky130_fd_sc_hd__and2_2
*CAP
1 *1931:C 0
2 *1930:B1 0
3 *1920:X 0.000218805
4 *394:23 0.000129051
5 *394:8 0.000347857
6 *394:23 *1931:D 8.41115e-05
7 *394:23 *1932:A_N 6.48142e-05
8 *394:23 *1937:B1 0.000130433
9 *394:23 *396:10 6.07611e-06
10 *1921:B *394:8 2.93747e-05
11 *1931:A *394:23 2.90148e-05
12 *1931:B *394:23 0
*RES
1 *1920:X *394:8 26.5007 
2 *394:8 *1930:B1 23 
3 *394:8 *394:23 33.568 
4 *394:23 *1931:C 23 
*END

*D_NET *395 0.000546311
*CONN
*I *2089:A I *D sky130_fd_sc_hd__buf_2
*I *1922:B I *D sky130_fd_sc_hd__and2_4
*I *1921:X O *D sky130_fd_sc_hd__xor2_2
*CAP
1 *2089:A 4.996e-05
2 *1922:B 0
3 *1921:X 8.05391e-05
4 *395:12 8.2499e-05
5 *395:8 0.000113078
6 *395:8 *470:10 8.41012e-05
7 *383:16 *2089:A 2.4754e-05
8 *383:16 *395:12 2.93845e-05
9 *383:31 *2089:A 2.93747e-05
10 *383:31 *395:8 5.26204e-05
*RES
1 *1921:X *395:8 40.2579 
2 *395:8 *395:12 15.6214 
3 *395:12 *1922:B 23 
4 *395:12 *2089:A 24.0979 
*END

*D_NET *396 0.00108105
*CONN
*I *1931:D I *D sky130_fd_sc_hd__or4_4
*I *1930:B2 I *D sky130_fd_sc_hd__o22a_2
*I *1922:X O *D sky130_fd_sc_hd__and2_4
*CAP
1 *1931:D 7.93075e-05
2 *1930:B2 0
3 *1922:X 0.00029602
4 *396:10 0.000375327
5 *396:10 *1932:A_N 7.4878e-05
6 *396:10 *470:10 0
7 *1921:B *396:10 0
8 *1930:A2 *1931:D 6.07929e-05
9 *1930:A2 *396:10 2.08324e-05
10 *1931:B *1931:D 1.83667e-05
11 *393:10 *396:10 6.53342e-05
12 *394:23 *1931:D 8.41115e-05
13 *394:23 *396:10 6.07611e-06
*RES
1 *1922:X *396:10 44.525 
2 *396:10 *1930:B2 38 
3 *396:10 *1931:D 40.2579 
*END

*D_NET *397 0.00179849
*CONN
*I *1926:A I *D sky130_fd_sc_hd__xnor2_2
*I *1925:B I *D sky130_fd_sc_hd__and2b_2
*I *1923:X O *D sky130_fd_sc_hd__xor2_2
*CAP
1 *1926:A 0
2 *1925:B 0.000156549
3 *1923:X 0.000430829
4 *397:23 0.000120539
5 *397:6 0.000707918
6 *1925:B *1924:A2 0.000187129
7 *1925:B *1925:A_N 5.90675e-06
8 *397:6 *1925:A_N 5.67058e-05
9 *397:23 *1924:A2 7.53384e-06
10 *397:23 *1925:A_N 5.50049e-05
11 *397:23 *398:10 7.03766e-05
12 *397:23 *399:8 0
*RES
1 *1923:X *397:6 30.2914 
2 *397:6 *1925:B 26.7286 
3 *397:6 *397:23 32.8793 
4 *397:23 *1926:A 23 
*END

*D_NET *398 0.000622537
*CONN
*I *1925:A_N I *D sky130_fd_sc_hd__and2b_2
*I *1926:B I *D sky130_fd_sc_hd__xnor2_2
*I *1924:Y O *D sky130_fd_sc_hd__a21oi_2
*CAP
1 *1925:A_N 0.000125679
2 *1926:B 0
3 *1924:Y 0
4 *398:10 8.27641e-05
5 *398:4 0.000208444
6 *1925:A_N *1924:A2 1.76557e-05
7 *398:10 *405:10 0
8 *1925:B *1925:A_N 5.90675e-06
9 *397:6 *1925:A_N 5.67058e-05
10 *397:23 *1925:A_N 5.50049e-05
11 *397:23 *398:10 7.03766e-05
*RES
1 *1924:Y *398:4 23 
2 *398:4 *398:10 31.9057 
3 *398:10 *1926:B 23 
4 *398:4 *1925:A_N 25.0714 
*END

*D_NET *399 0.000766226
*CONN
*I *1929:B1 I *D sky130_fd_sc_hd__a21o_4
*I *1925:X O *D sky130_fd_sc_hd__and2b_2
*CAP
1 *1929:B1 9.37445e-05
2 *1925:X 0.000238186
3 *399:8 0.00033193
4 *399:8 *400:8 0.000102365
5 *399:8 *401:27 0
6 *397:23 *399:8 0
*RES
1 *1925:X *399:8 43.075 
2 *399:8 *1929:B1 39.5743 
*END

*D_NET *400 0.000419193
*CONN
*I *1928:A I *D sky130_fd_sc_hd__xor2_2
*I *1929:A2 I *D sky130_fd_sc_hd__a21o_4
*I *1926:Y O *D sky130_fd_sc_hd__xnor2_2
*CAP
1 *1928:A 5.90989e-05
2 *1929:A2 0
3 *1926:Y 0.000158414
4 *400:8 9.93149e-05
5 *400:8 *401:27 0
6 *399:8 *400:8 0.000102365
*RES
1 *1926:Y *400:8 40.61 
2 *400:8 *1929:A2 38 
3 *1926:Y *1928:A 47.0979 
*END

*D_NET *401 0.00129352
*CONN
*I *1929:A1 I *D sky130_fd_sc_hd__a21o_4
*I *1928:B I *D sky130_fd_sc_hd__xor2_2
*I *1927:X O *D sky130_fd_sc_hd__a21o_4
*CAP
1 *1929:A1 0
2 *1928:B 0.000363201
3 *1927:X 0.000283557
4 *401:27 0.000324653
5 *401:8 0.000322105
6 *401:8 *499:8 0
7 *401:27 *488:10 0
8 *1927:A2 *401:8 0
9 *399:8 *401:27 0
10 *400:8 *401:27 0
*RES
1 *1927:X *401:8 43.4271 
2 *401:8 *1928:B 15.5489 
3 *1928:B *401:27 35.8414 
4 *401:27 *1929:A1 23 
*END

*D_NET *402 0.00205114
*CONN
*I *1933:A I *D sky130_fd_sc_hd__xor2_2
*I *1937:A1 I *D sky130_fd_sc_hd__a21o_2
*I *1929:X O *D sky130_fd_sc_hd__a21o_4
*CAP
1 *1933:A 0
2 *1937:A1 0.000550992
3 *1929:X 0.000138853
4 *402:21 0.000141654
5 *402:6 0.000831499
6 *1937:A1 *2080:A 0.00014196
7 *1937:A1 *2081:A 7.84283e-05
8 *402:21 *489:8 0
9 *47:8 *1937:A1 9.90162e-05
10 *48:10 *1937:A1 6.87362e-05
*RES
1 *1929:X *402:6 25.5271 
2 *402:6 *1937:A1 34.6 
3 *402:6 *402:21 32.61 
4 *402:21 *1933:A 23 
*END

*D_NET *403 0.00170359
*CONN
*I *1937:B1 I *D sky130_fd_sc_hd__a21o_2
*I *1932:A_N I *D sky130_fd_sc_hd__and2b_2
*I *1930:X O *D sky130_fd_sc_hd__o22a_2
*CAP
1 *1937:B1 0.000240934
2 *1932:A_N 0.000188485
3 *1930:X 0
4 *403:6 0.000429419
5 *1932:A_N *470:10 0.000280866
6 *1937:B1 *2081:A 5.50049e-05
7 *1937:B1 *404:8 8.51329e-05
8 *1937:B1 *404:24 0
9 *1937:B1 *470:10 8.85189e-05
10 *1931:B *1937:B1 0
11 *32:9 *1937:B1 0
12 *369:12 *1932:A_N 6.51031e-05
13 *388:10 *1937:B1 0
14 *394:23 *1932:A_N 6.48142e-05
15 *394:23 *1937:B1 0.000130433
16 *396:10 *1932:A_N 7.4878e-05
*RES
1 *1930:X *403:6 38 
2 *403:6 *1932:A_N 43.7171 
3 *403:6 *1937:B1 43.6964 
*END

*D_NET *404 0.00109951
*CONN
*I *1932:B I *D sky130_fd_sc_hd__and2b_2
*I *1937:A2 I *D sky130_fd_sc_hd__a21o_2
*I *1931:X O *D sky130_fd_sc_hd__or4_4
*CAP
1 *1932:B 6.99729e-05
2 *1937:A2 0
3 *1931:X 0.000292491
4 *404:24 0.000287089
5 *404:8 7.53752e-05
6 *404:24 *470:10 0
7 *404:24 *504:8 1.02387e-05
8 *1937:B1 *404:8 8.51329e-05
9 *1937:B1 *404:24 0
10 *32:9 *404:8 8.41115e-05
11 *369:12 *1932:B 2.54193e-05
12 *383:31 *404:24 0.000169683
*RES
1 *1931:X *404:8 40.2579 
2 *404:8 *1937:A2 38 
3 *1931:X *404:24 42.7229 
4 *404:24 *1932:B 39.0979 
*END

*D_NET *405 0.00131187
*CONN
*I *1933:B I *D sky130_fd_sc_hd__xor2_2
*I *1932:X O *D sky130_fd_sc_hd__and2b_2
*CAP
1 *1933:B 0
2 *1932:X 0.000571225
3 *405:10 0.000571225
4 *405:10 *498:10 0
5 *369:12 *405:10 0.000169423
6 *375:10 *405:10 0
7 *398:10 *405:10 0
*RES
1 *1932:X *405:10 47.6321 
2 *405:10 *1933:B 15 
*END

*D_NET *406 0.000373888
*CONN
*I *1935:B I *D sky130_fd_sc_hd__nor2_2
*I *1934:Y O *D sky130_fd_sc_hd__a21oi_2
*CAP
1 *1935:B 0.000129413
2 *1934:Y 0.000129413
3 *1935:B *446:54 0.000115062
*RES
1 *1934:Y *1935:B 48.5479 
*END

*D_NET *407 0.00653357
*CONN
*I *1965:A0 I *D sky130_fd_sc_hd__mux2_1
*I *1944:B I *D sky130_fd_sc_hd__and2_2
*I *1943:X O *D sky130_fd_sc_hd__and2_2
*CAP
1 *1965:A0 0
2 *1944:B 0
3 *1943:X 0.000683919
4 *407:34 0.000600383
5 *407:18 0.000119455
6 *407:12 0.0024318
7 *407:8 0.00239589
8 *407:18 *528:10 0
9 *407:34 *419:24 7.461e-05
10 *407:34 *419:33 0.000137143
11 *407:34 *419:46 5.56306e-05
12 *407:34 *423:35 1.56662e-06
13 *407:34 *431:10 0
14 *407:34 *472:31 3.31728e-05
15 *407:34 *491:10 0
16 *407:34 *515:10 0
17 *51:8 *407:34 0
*RES
1 *1943:X *407:8 39.2014 
2 *407:8 *407:12 45.6364 
3 *407:12 *407:18 31.9057 
4 *407:18 *1944:B 23 
5 *1943:X *407:34 48.7507 
6 *407:34 *1965:A0 38 
*END

*D_NET *408 0.00424065
*CONN
*I *1956:A1 I *D sky130_fd_sc_hd__o21a_2
*I *1953:C I *D sky130_fd_sc_hd__nor3_2
*I *1952:X O *D sky130_fd_sc_hd__or4_2
*CAP
1 *1956:A1 0.000208659
2 *1953:C 0
3 *1952:X 0.000381352
4 *408:16 0.000967549
5 *408:8 0.00114024
6 *1956:A1 *1949:A 2.45092e-05
7 *1956:A1 *1956:A2 5.3304e-05
8 *1956:A1 *1956:B1 5.65876e-05
9 *1956:A1 *491:35 0.000190263
10 *408:8 *418:67 0
11 *408:8 *429:14 4.65714e-05
12 *408:8 *429:27 0.000275638
13 *408:8 *493:10 0
14 *408:8 *493:88 0.000242597
15 *408:8 *526:18 0
16 *408:16 *1953:B 6.27878e-05
17 *408:16 *1964:C 0.000223495
18 *408:16 *425:14 1.22822e-05
19 *408:16 *491:35 6.16531e-05
20 *408:16 *525:8 0.000269775
21 *2008:D *1956:A1 2.33782e-05
*RES
1 *1952:X *408:8 47.6529 
2 *408:8 *408:16 41.4757 
3 *408:16 *1953:C 38 
4 *408:16 *1956:A1 42.5571 
*END

*D_NET *409 0.00578304
*CONN
*I *1964:D_N I *D sky130_fd_sc_hd__or4b_2
*I *1954:B I *D sky130_fd_sc_hd__nor2_2
*I *1953:Y O *D sky130_fd_sc_hd__nor3_2
*CAP
1 *1964:D_N 0
2 *1954:B 0.000218767
3 *1953:Y 0.000402382
4 *409:28 0.00106135
5 *409:14 0.00135925
6 *409:8 0.000919053
7 *1954:B *1961:S 5.5792e-05
8 *1954:B *413:10 3.75509e-05
9 *1954:B *458:24 2.95526e-05
10 *1954:B *476:6 0.000189857
11 *409:8 *1953:B 9.84851e-05
12 *409:8 *1964:C 1.57571e-05
13 *409:8 *414:6 2.91709e-05
14 *409:8 *426:16 2.91858e-05
15 *409:14 *1955:A 0.00040813
16 *409:28 *460:8 5.14087e-05
17 *409:28 *476:6 0.000230723
18 *409:28 *478:45 4.50551e-05
19 *1983:D *409:28 0.000353206
20 *2061:A *409:28 8.14704e-05
21 *62:12 *1954:B 0.000166888
*RES
1 *1953:Y *409:8 28.7586 
2 *409:8 *409:14 40.7093 
3 *409:14 *409:28 41.9815 
4 *409:28 *1954:B 44.525 
5 *409:8 *1964:D_N 23 
*END

*D_NET *410 0.00159144
*CONN
*I *1956:A2 I *D sky130_fd_sc_hd__o21a_2
*I *1964:B I *D sky130_fd_sc_hd__or4b_2
*I *1955:X O *D sky130_fd_sc_hd__or2_2
*CAP
1 *1956:A2 9.81261e-05
2 *1964:B 0.000171499
3 *1955:X 0.000176732
4 *410:10 0.000446358
5 *1956:A2 *1956:B1 2.33679e-05
6 *1964:B *2002:CLK 1.12863e-05
7 *1964:B *419:91 0.000167275
8 *1964:B *426:16 9.82009e-05
9 *410:10 *2002:CLK 0.000152571
10 *1956:A1 *1956:A2 5.3304e-05
11 *1982:D *1956:A2 5.58003e-05
12 *2008:D *1956:A2 0.000100477
13 *55:8 *410:10 3.64394e-05
*RES
1 *1955:X *410:10 41.3557 
2 *410:10 *1964:B 41.3557 
3 *410:10 *1956:A2 40.5271 
*END

*D_NET *411 0.00210706
*CONN
*I *1958:B I *D sky130_fd_sc_hd__and2_2
*I *1957:X O *D sky130_fd_sc_hd__mux2_1
*CAP
1 *1958:B 0.000360867
2 *1957:X 0.000331382
3 *411:8 0.000692248
4 *1958:B *1965:A1 0.00010018
5 *1958:B *414:6 0.000185428
6 *411:8 *1955:B 0
7 *411:8 *1965:A1 0
8 *411:8 *419:46 0
9 *411:8 *431:10 1.01436e-05
10 *411:8 *473:8 8.57485e-05
11 *411:8 *478:83 0.000300463
12 *64:16 *411:8 4.06037e-05
*RES
1 *1957:X *411:8 45.8921 
2 *411:8 *1958:B 45.2914 
*END

*D_NET *412 0.000325096
*CONN
*I *1960:B I *D sky130_fd_sc_hd__and2_2
*I *1959:X O *D sky130_fd_sc_hd__mux2_1
*CAP
1 *1960:B 0.000146236
2 *1959:X 0.000146236
3 *65:10 *1960:B 3.26241e-05
*RES
1 *1959:X *1960:B 48.9 
*END

*D_NET *413 0.00105051
*CONN
*I *1962:B I *D sky130_fd_sc_hd__and2_2
*I *1961:X O *D sky130_fd_sc_hd__mux2_1
*CAP
1 *1962:B 0
2 *1961:X 0.000258917
3 *413:10 0.000258917
4 *413:10 *1962:A 0.000353858
5 *413:10 *1984:CLK 9.53705e-05
6 *1954:B *413:10 3.75509e-05
7 *65:10 *413:10 4.58924e-05
8 *67:8 *413:10 0
*RES
1 *1961:X *413:10 44.2971 
2 *413:10 *1962:B 38 
*END

*D_NET *414 0.00109835
*CONN
*I *1965:S I *D sky130_fd_sc_hd__mux2_1
*I *1964:X O *D sky130_fd_sc_hd__or4b_2
*CAP
1 *1965:S 0
2 *1964:X 0.000408842
3 *414:6 0.000408842
4 *414:6 *521:8 6.60621e-05
5 *1958:B *414:6 0.000185428
6 *409:8 *414:6 2.91709e-05
*RES
1 *1964:X *414:6 31.1096 
2 *414:6 *1965:S 23 
*END

*D_NET *415 0.00144874
*CONN
*I *1966:B I *D sky130_fd_sc_hd__and2_2
*I *1965:X O *D sky130_fd_sc_hd__mux2_1
*CAP
1 *1966:B 0.000431255
2 *1965:X 6.55145e-05
3 *415:8 0.00049677
4 *1966:B *2007:CLK 0.000359332
5 *415:8 *419:46 4.08641e-05
6 *415:8 *471:59 0
7 *68:10 *1966:B 5.50049e-05
*RES
1 *1965:X *415:8 39.2014 
2 *415:8 *1966:B 44.7114 
*END

*D_NET *416 0.0101977
*CONN
*I *2024:A I *D sky130_fd_sc_hd__clkdlybuf4s25_1
*I *2022:A I *D sky130_fd_sc_hd__clkdlybuf4s25_1
*I *2023:A I *D sky130_fd_sc_hd__clkdlybuf4s25_1
*I *2021:A I *D sky130_fd_sc_hd__clkdlybuf4s25_1
*I *1601:Y O *D sky130_fd_sc_hd__inv_2
*CAP
1 *2024:A 0
2 *2022:A 0.00128487
3 *2023:A 0.000254762
4 *2021:A 9.47251e-05
5 *1601:Y 0
6 *416:71 0.000524111
7 *416:46 0.0028445
8 *416:25 0.00200804
9 *416:4 0.000812483
10 *2021:A *1601:A 6.29487e-05
11 *2021:A *491:10 1.76557e-05
12 *2022:A *1989:CLK 0.000377346
13 *2022:A *1992:CLK 1.94693e-05
14 *2022:A *492:8 1.17821e-05
15 *416:25 *2003:CLK 0.00016228
16 *416:25 *2037:A 5.40241e-05
17 *416:25 *2045:A 1.40958e-05
18 *416:25 *491:10 9.88574e-06
19 *416:25 *491:35 1.37349e-05
20 *416:25 *515:27 8.4047e-05
21 *416:25 *522:21 0.000111852
22 *416:25 *527:8 0.000273273
23 *416:46 *1949:A 0.000214895
24 *416:46 *2041:A 0
25 *416:46 *418:15 0
26 *416:46 *421:35 0
27 *416:46 *426:16 0
28 *416:46 *438:10 0
29 *416:46 *443:8 8.85189e-05
30 *416:46 *491:35 0.000196193
31 *416:46 *522:21 0.000245538
32 *416:71 *2028:A 4.6318e-06
33 *416:71 *418:15 5.56706e-05
34 *416:71 *418:47 2.43996e-05
35 *416:71 *442:21 7.06668e-05
36 *1989:D *2022:A 3.24476e-06
37 *1989:D *416:71 8.06804e-06
38 *1992:D *2022:A 8.96607e-05
39 *2003:D *416:25 1.34175e-05
40 *38:15 *2022:A 2.87553e-05
41 *70:8 *416:46 0.000118174
*RES
1 *1601:Y *416:4 23 
2 *416:4 *2021:A 25.5686 
3 *416:4 *416:25 28.2986 
4 *416:25 *2023:A 42.35 
5 *416:25 *416:46 36.2736 
6 *416:46 *2022:A 43.2586 
7 *416:46 *416:71 37.6436 
8 *416:71 *2024:A 23 
*END

*D_NET *417 0.000967876
*CONN
*I *1950:A1 I *D sky130_fd_sc_hd__a211o_2
*I *1602:Y O *D sky130_fd_sc_hd__inv_2
*CAP
1 *1950:A1 2.5826e-05
2 *1602:Y 0.000373003
3 *417:12 0.000398829
4 *1950:A1 *515:10 1.05441e-05
5 *3:14 *1950:A1 0
6 *54:20 *417:12 0.000159674
*RES
1 *1602:Y *417:12 47.3216 
2 *417:12 *1950:A1 46.3211 
*END

*D_NET *418 0.00980154
*CONN
*I *2016:A I *D sky130_fd_sc_hd__clkbuf_16
*I *2014:A I *D sky130_fd_sc_hd__clkbuf_16
*I *2015:A I *D sky130_fd_sc_hd__clkbuf_16
*I *2017:A I *D sky130_fd_sc_hd__clkbuf_16
*I *2013:X O *D sky130_fd_sc_hd__clkbuf_16
*CAP
1 *2016:A 0
2 *2014:A 8.67979e-05
3 *2015:A 0.00014598
4 *2017:A 9.77028e-05
5 *2013:X 0
6 *418:81 0.00117751
7 *418:67 0.00164718
8 *418:62 0.000620073
9 *418:47 0.000632189
10 *418:31 0.000979997
11 *418:15 0.00183126
12 *418:6 0.000532008
13 *418:4 0.000132859
14 *2014:A *419:8 3.7122e-06
15 *2014:A *515:10 2.6214e-05
16 *2015:A *1675:B2 1.41077e-05
17 *2015:A *1968:A 5.90675e-06
18 *2015:A *438:16 2.47702e-05
19 *2015:A *492:53 1.70074e-05
20 *2017:A *448:8 3.52383e-05
21 *418:6 *1942:A 0.000157861
22 *418:6 *1973:A 7.42621e-05
23 *418:6 *443:12 8.97159e-05
24 *418:15 *1942:A 7.01419e-05
25 *418:15 *2028:A 0
26 *418:15 *2041:A 0
27 *418:15 *443:12 6.65155e-05
28 *418:15 *443:22 0
29 *418:15 *523:10 0
30 *418:31 *422:80 6.10551e-06
31 *418:31 *443:22 0
32 *418:47 *1675:A1 7.24484e-05
33 *418:47 *1675:B2 9.17918e-05
34 *418:47 *442:21 0
35 *418:47 *442:32 0
36 *418:47 *492:53 1.2377e-05
37 *418:62 *1942:A 4.69418e-05
38 *418:62 *1973:A 0.000128391
39 *418:62 *493:57 7.64944e-05
40 *418:67 *1951:A3 0.000103123
41 *418:67 *2044:A 0.000166531
42 *418:67 *493:37 3.42445e-05
43 *418:67 *493:46 4.91209e-05
44 *418:67 *523:10 0
45 *418:67 *526:10 0.000179348
46 *418:67 *526:18 0.00019592
47 *418:81 *1953:B 1.09783e-05
48 *418:81 *491:35 8.21456e-06
49 *418:81 *515:10 6.64697e-06
50 *418:81 *515:27 1.73399e-05
51 *418:81 *526:18 1.05658e-05
52 *54:20 *418:81 0
53 *70:8 *418:15 0
54 *70:8 *418:47 0
55 *76:10 *418:31 2.76611e-06
56 *106:12 *418:31 0
57 *154:8 *418:47 3.31127e-05
58 *408:8 *418:67 0
59 *416:46 *418:15 0
60 *416:71 *418:15 5.56706e-05
61 *416:71 *418:47 2.43996e-05
*RES
1 *2013:X *418:4 23 
2 *418:4 *418:6 3.24179 
3 *418:6 *418:15 24.4043 
4 *418:15 *418:31 38.8794 
5 *418:31 *2017:A 24.74 
6 *418:15 *418:47 23.99 
7 *418:47 *2015:A 25.6618 
8 *418:4 *418:62 17.5271 
9 *418:62 *418:67 13.8786 
10 *418:67 *418:81 34.8762 
11 *418:81 *2014:A 24.3361 
12 *418:67 *2016:A 38 
*END

*D_NET *419 0.00898369
*CONN
*I *2002:CLK I *D sky130_fd_sc_hd__dfxtp_2
*I *1982:CLK I *D sky130_fd_sc_hd__dfxtp_2
*I *2003:CLK I *D sky130_fd_sc_hd__dfxtp_2
*I *2010:CLK I *D sky130_fd_sc_hd__dfxtp_2
*I *2004:CLK I *D sky130_fd_sc_hd__dfxtp_2
*I *1981:CLK I *D sky130_fd_sc_hd__dfxtp_2
*I *1987:CLK I *D sky130_fd_sc_hd__dfxtp_2
*I *2007:CLK I *D sky130_fd_sc_hd__dfxtp_2
*I *2001:CLK I *D sky130_fd_sc_hd__dfxtp_2
*I *2014:X O *D sky130_fd_sc_hd__clkbuf_16
*CAP
1 *2002:CLK 0.000110359
2 *1982:CLK 0
3 *2003:CLK 6.4323e-05
4 *2010:CLK 2.34823e-05
5 *2004:CLK 2.34823e-05
6 *1981:CLK 9.24644e-05
7 *1987:CLK 0.00021784
8 *2007:CLK 0.000180419
9 *2001:CLK 0
10 *2014:X 0.000240308
11 *419:91 0.000426376
12 *419:46 0.000542206
13 *419:33 0.000550631
14 *419:24 0.000316045
15 *419:18 0.000700716
16 *419:16 0.000862352
17 *419:10 0.000538421
18 *419:8 0.000691051
19 *1981:CLK *1965:A1 3.67392e-05
20 *1981:CLK *478:21 0.000128654
21 *2003:CLK *2045:A 9.84851e-05
22 *2007:CLK *515:10 3.71228e-05
23 *419:8 *515:10 0.000621611
24 *419:10 *1948:B 2.50756e-05
25 *419:10 *1953:B 4.15888e-05
26 *419:16 *1948:B 8.96322e-05
27 *419:24 *515:10 2.04774e-05
28 *419:24 *516:10 0.000163692
29 *419:33 *471:59 0
30 *419:33 *515:10 4.83838e-05
31 *419:46 *1965:A1 0.000251701
32 *419:46 *431:10 0
33 *419:46 *471:59 0
34 *419:91 *1953:B 9.90641e-05
35 *1964:B *2002:CLK 1.12863e-05
36 *1964:B *419:91 0.000167275
37 *1966:B *2007:CLK 0.000359332
38 *1987:D *1987:CLK 0.000127885
39 *2004:D *419:18 0.00027663
40 *2010:D *419:16 1.64354e-05
41 *2014:A *419:8 3.7122e-06
42 *49:10 *2002:CLK 3.36312e-06
43 *54:20 *2007:CLK 0.000146207
44 *54:20 *419:33 0
45 *62:12 *1981:CLK 5.75756e-06
46 *407:34 *419:24 7.461e-05
47 *407:34 *419:33 0.000137143
48 *407:34 *419:46 5.56306e-05
49 *410:10 *2002:CLK 0.000152571
50 *411:8 *419:46 0
51 *415:8 *419:46 4.08641e-05
52 *416:25 *2003:CLK 0.00016228
*RES
1 *2014:X *419:8 44.815 
2 *419:8 *419:10 2.25786 
3 *419:10 *419:16 21.09 
4 *419:16 *419:18 8.24429 
5 *419:18 *419:24 18.3557 
6 *419:24 *2001:CLK 38 
7 *419:24 *419:33 3.66643 
8 *419:33 *2007:CLK 43.4064 
9 *419:33 *419:46 5.77929 
10 *419:46 *1987:CLK 41.9771 
11 *419:46 *1981:CLK 40.2579 
12 *419:18 *2004:CLK 23.4971 
13 *419:16 *2010:CLK 23.4971 
14 *419:10 *2003:CLK 40.0507 
15 *419:8 *419:91 6.48357 
16 *419:91 *1982:CLK 38 
17 *419:91 *2002:CLK 40.61 
*END

*D_NET *420 0.00687836
*CONN
*I *1991:CLK I *D sky130_fd_sc_hd__dfxtp_2
*I *2018:A I *D sky130_fd_sc_hd__clkbuf_4
*I *1986:CLK I *D sky130_fd_sc_hd__dfxtp_2
*I *1985:CLK I *D sky130_fd_sc_hd__dfxtp_2
*I *1984:CLK I *D sky130_fd_sc_hd__dfxtp_2
*I *1989:CLK I *D sky130_fd_sc_hd__dfxtp_2
*I *1992:CLK I *D sky130_fd_sc_hd__dfxtp_2
*I *1990:CLK I *D sky130_fd_sc_hd__dfxtp_2
*I *1983:CLK I *D sky130_fd_sc_hd__dfxtp_2
*I *2015:X O *D sky130_fd_sc_hd__clkbuf_16
*CAP
1 *1991:CLK 0
2 *2018:A 0
3 *1986:CLK 0
4 *1985:CLK 0.000174995
5 *1984:CLK 0.000291836
6 *1989:CLK 0.000426716
7 *1992:CLK 1.97948e-05
8 *1990:CLK 0.000204273
9 *1983:CLK 0.000196131
10 *2015:X 0.000107264
11 *420:64 0.000466831
12 *420:62 0.000574757
13 *420:54 0.000736958
14 *420:50 0.000162201
15 *420:34 0.00044651
16 *420:12 0.000538577
17 *420:10 0.000302172
18 *420:8 0.000271262
19 *1983:CLK *1963:B 0
20 *1983:CLK *478:45 0
21 *1983:CLK *492:10 0
22 *1984:CLK *1963:A_N 0.000226306
23 *1990:CLK *1969:B 0.000232409
24 *1990:CLK *439:19 7.12002e-05
25 *420:8 *439:19 0
26 *420:10 *439:19 0
27 *420:12 *439:19 0
28 *420:12 *477:8 0
29 *420:12 *492:10 0
30 *420:12 *492:34 0
31 *420:62 *441:10 7.44257e-05
32 *1984:D *1984:CLK 0.000182832
33 *1986:D *420:62 1.64354e-05
34 *1990:D *1990:CLK 0.000109616
35 *1992:D *1989:CLK 7.17006e-05
36 *1992:D *1992:CLK 5.50049e-05
37 *2022:A *1989:CLK 0.000377346
38 *2022:A *1992:CLK 1.94693e-05
39 *4:8 *1984:CLK 0
40 *4:8 *1985:CLK 0
41 *66:10 *1984:CLK 8.51329e-05
42 *66:10 *1985:CLK 8.41115e-05
43 *67:8 *1984:CLK 8.48131e-05
44 *72:10 *420:8 0.000171906
45 *73:8 *420:8 0
46 *73:8 *420:10 0
47 *73:8 *420:12 0
48 *413:10 *1984:CLK 9.53705e-05
*RES
1 *2015:X *420:8 40.61 
2 *420:8 *420:10 2.96214 
3 *420:10 *420:12 2.25786 
4 *420:12 *1983:CLK 41.3143 
5 *420:12 *1990:CLK 42.93 
6 *420:10 *420:34 15 
7 *420:34 *1992:CLK 23.6214 
8 *420:34 *1989:CLK 32.6736 
9 *420:8 *420:50 15 
10 *420:50 *420:54 3.02429 
11 *420:54 *420:62 9.86 
12 *420:62 *420:64 15 
13 *420:64 *1984:CLK 46.3064 
14 *420:64 *1985:CLK 41.2314 
15 *420:62 *1986:CLK 23 
16 *420:54 *2018:A 23 
17 *420:50 *1991:CLK 23 
*END

*D_NET *421 0.0093013
*CONN
*I *2012:CLK I *D sky130_fd_sc_hd__dfxtp_2
*I *2019:A I *D sky130_fd_sc_hd__clkbuf_4
*I *2011:CLK I *D sky130_fd_sc_hd__dfxtp_2
*I *1988:CLK I *D sky130_fd_sc_hd__dfxtp_2
*I *2006:CLK I *D sky130_fd_sc_hd__dfxtp_2
*I *2005:CLK I *D sky130_fd_sc_hd__dfxtp_2
*I *1980:CLK I *D sky130_fd_sc_hd__dfxtp_2
*I *2008:CLK I *D sky130_fd_sc_hd__dfxtp_2
*I *2009:CLK I *D sky130_fd_sc_hd__dfxtp_2
*I *2016:X O *D sky130_fd_sc_hd__clkbuf_16
*CAP
1 *2012:CLK 0.000135746
2 *2019:A 9.21628e-05
3 *2011:CLK 0.000180135
4 *1988:CLK 0.000179767
5 *2006:CLK 0
6 *2005:CLK 0
7 *1980:CLK 3.73824e-05
8 *2008:CLK 7.12217e-05
9 *2009:CLK 0.00015495
10 *2016:X 0.000431606
11 *421:127 0.000429131
12 *421:92 0.000498213
13 *421:71 0.000452853
14 *421:54 0.00118248
15 *421:35 0.00124893
16 *421:16 0.00076435
17 *421:12 0.000602823
18 *421:8 0.000570956
19 *2008:CLK *426:16 5.055e-05
20 *2009:CLK *424:16 0
21 *2009:CLK *427:8 0
22 *2009:CLK *522:21 0
23 *2012:CLK *465:39 0
24 *421:8 *430:10 0
25 *421:8 *528:10 0
26 *421:12 *424:10 0.000379052
27 *421:12 *430:10 5.83407e-05
28 *421:16 *424:10 0.000244575
29 *421:35 *424:16 0
30 *421:35 *426:16 6.84069e-05
31 *421:35 *493:10 1.45145e-05
32 *421:35 *493:23 0
33 *421:35 *493:88 0
34 *421:35 *522:21 0
35 *421:54 *1980:D 4.72517e-05
36 *421:54 *2041:A 0.000108713
37 *421:54 *426:16 5.68297e-05
38 *421:54 *525:14 9.66171e-05
39 *421:71 *1980:D 3.68359e-05
40 *421:71 *2044:A 5.14826e-05
41 *421:71 *524:10 9.06602e-05
42 *421:71 *526:10 0.000187363
43 *421:92 *430:10 0
44 *421:127 *465:39 0
45 *1988:D *1988:CLK 5.50049e-05
46 *2006:D *421:12 0.000114952
47 *2006:D *421:16 5.50106e-05
48 *2008:D *2008:CLK 5.3304e-05
49 *2011:D *2011:CLK 0.000189687
50 *53:10 *2009:CLK 0
51 *56:14 *2009:CLK 4.21594e-06
52 *58:10 *1988:CLK 0.00016048
53 *59:10 *2012:CLK 0.000141038
54 *59:10 *2019:A 3.7122e-06
55 *61:12 *2012:CLK 0
56 *416:46 *421:35 0
*RES
1 *2016:X *421:8 40.2579 
2 *421:8 *421:12 26.1029 
3 *421:12 *421:16 18.48 
4 *421:16 *2009:CLK 40.61 
5 *421:16 *421:35 9.95321 
6 *421:35 *2008:CLK 39.9161 
7 *421:35 *421:54 26.5896 
8 *421:54 *1980:CLK 23.8493 
9 *421:54 *421:71 37.3121 
10 *421:71 *2005:CLK 23 
11 *421:12 *2006:CLK 23 
12 *2016:X *421:92 41.2314 
13 *421:92 *1988:CLK 41.9979 
14 *421:92 *2011:CLK 41.9564 
15 *2016:X *421:127 41.3557 
16 *421:127 *2019:A 39.5743 
17 *421:127 *2012:CLK 40.9621 
*END

*D_NET *422 0.00801646
*CONN
*I *1998:CLK I *D sky130_fd_sc_hd__dfxtp_2
*I *1999:CLK I *D sky130_fd_sc_hd__dfxtp_2
*I *2000:CLK I *D sky130_fd_sc_hd__dfxtp_2
*I *2020:A I *D sky130_fd_sc_hd__clkbuf_4
*I *1995:CLK I *D sky130_fd_sc_hd__dfxtp_2
*I *1996:CLK I *D sky130_fd_sc_hd__dfxtp_2
*I *1993:CLK I *D sky130_fd_sc_hd__dfxtp_2
*I *1997:CLK I *D sky130_fd_sc_hd__dfxtp_2
*I *1994:CLK I *D sky130_fd_sc_hd__dfxtp_2
*I *2017:X O *D sky130_fd_sc_hd__clkbuf_16
*CAP
1 *1998:CLK 0
2 *1999:CLK 0.000271287
3 *2000:CLK 1.97948e-05
4 *2020:A 0
5 *1995:CLK 0
6 *1996:CLK 0.000210996
7 *1993:CLK 0.000250451
8 *1997:CLK 0.000250316
9 *1994:CLK 0.000404846
10 *2017:X 0.000129263
11 *422:94 0.000441818
12 *422:80 0.000169113
13 *422:67 0.000678023
14 *422:65 0.000395914
15 *422:28 0.00084191
16 *422:26 0.000570534
17 *422:24 0.000625178
18 *422:14 0.000700789
19 *422:12 0.00015621
20 *422:10 0.000129263
21 *1994:CLK *448:14 0
22 *1997:CLK *447:16 3.46302e-05
23 *422:10 *494:45 0.000114083
24 *422:14 *2047:A 8.52481e-05
25 *422:14 *494:45 0.000119313
26 *422:24 *2047:A 5.67058e-05
27 *422:24 *448:14 0
28 *422:24 *462:10 0.000132477
29 *422:24 *494:45 4.66047e-05
30 *422:26 *448:14 0
31 *422:28 *448:14 0
32 *422:65 *449:8 0.000128391
33 *422:67 *449:8 0.000131304
34 *422:80 *443:22 0
35 *1629:B1 *1999:CLK 5.3304e-05
36 *1630:A *1999:CLK 9.202e-05
37 *1993:D *1993:CLK 8.90341e-05
38 *1994:D *1994:CLK 1.64354e-05
39 *1996:D *1996:CLK 1.64354e-05
40 *74:10 *422:28 0
41 *77:10 *422:80 0
42 *80:12 *1999:CLK 0
43 *80:12 *422:10 0.000167443
44 *80:12 *422:94 0
45 *81:10 *1999:CLK 4.6318e-06
46 *81:10 *422:14 5.41385e-05
47 *81:10 *422:24 7.59794e-05
48 *81:10 *422:94 7.91493e-05
49 *107:12 *1999:CLK 0
50 *108:8 *1999:CLK 0.000122226
51 *109:8 *1999:CLK 7.06229e-05
52 *141:14 *2000:CLK 5.50049e-05
53 *155:8 *2000:CLK 1.94693e-05
54 *418:31 *422:80 6.10551e-06
*RES
1 *2017:X *422:10 40.8793 
2 *422:10 *422:12 15 
3 *422:12 *422:14 3.95643 
4 *422:14 *422:24 23.4721 
5 *422:24 *422:26 2.25786 
6 *422:26 *422:28 3.31429 
7 *422:28 *1994:CLK 45.0636 
8 *422:28 *1997:CLK 42.4329 
9 *422:26 *1993:CLK 42.4536 
10 *422:24 *422:65 17.5271 
11 *422:65 *422:67 6.33857 
12 *422:67 *1996:CLK 26.48 
13 *422:67 *422:80 32.9621 
14 *422:80 *1995:CLK 23 
15 *422:65 *2020:A 23 
16 *422:14 *422:94 17.9621 
17 *422:94 *2000:CLK 38.6214 
18 *422:94 *1999:CLK 43.9657 
19 *422:12 *1998:CLK 23 
*END

*D_NET *423 0.00222338
*CONN
*I *1943:B I *D sky130_fd_sc_hd__and2_2
*I *1950:A2 I *D sky130_fd_sc_hd__a211o_2
*I *2001:Q O *D sky130_fd_sc_hd__dfxtp_2
*CAP
1 *1943:B 0
2 *1950:A2 4.01155e-05
3 *2001:Q 0.000211367
4 *423:35 0.000318059
5 *423:12 0.000717145
6 *423:8 0.000570338
7 *1950:A2 *1950:C1 0
8 *423:12 *472:10 5.72217e-05
9 *423:35 *1950:B1 2.93747e-05
10 *423:35 *1950:C1 5.38653e-06
11 *423:35 *472:10 3.09685e-05
12 *423:35 *472:31 1.61377e-05
13 *3:14 *423:8 0.000225701
14 *34:13 *423:8 0
15 *407:34 *423:35 1.56662e-06
*RES
1 *2001:Q *423:8 43.7793 
2 *423:8 *423:12 19.9093 
3 *423:12 *1950:A2 23.8493 
4 *423:12 *423:35 35.2614 
5 *423:35 *1943:B 23 
*END

*D_NET *424 0.00323302
*CONN
*I *2034:A I *D sky130_fd_sc_hd__dlygate4sd3_1
*I *2011:Q O *D sky130_fd_sc_hd__dfxtp_2
*CAP
1 *2034:A 0
2 *2011:Q 0.000967748
3 *424:16 0.000125898
4 *424:10 0.00109365
5 *424:16 *522:21 0.00025214
6 *2006:D *424:10 0.000169963
7 *2009:CLK *424:16 0
8 *421:12 *424:10 0.000379052
9 *421:16 *424:10 0.000244575
10 *421:35 *424:16 0
*RES
1 *2011:Q *424:10 38.5564 
2 *424:10 *424:16 33.3143 
3 *424:16 *2034:A 23 
*END

*D_NET *425 0.00337599
*CONN
*I *2043:A I *D sky130_fd_sc_hd__dlygate4sd3_1
*I *1951:A4 I *D sky130_fd_sc_hd__o41a_2
*I *1964:C I *D sky130_fd_sc_hd__or4b_2
*I *2012:Q O *D sky130_fd_sc_hd__dfxtp_2
*CAP
1 *2043:A 0
2 *1951:A4 0
3 *1964:C 0.00028099
4 *2012:Q 0.000118348
5 *425:14 0.000452483
6 *425:12 0.000195683
7 *425:8 0.000142538
8 *1964:C *1953:B 9.62666e-05
9 *1964:C *426:16 0.000538216
10 *425:8 *526:18 0
11 *425:12 *493:37 7.42621e-05
12 *425:14 *493:37 0.000119486
13 *425:14 *525:8 0.000173452
14 *61:6 *1964:C 0.000184527
15 *61:6 *425:12 0.000141954
16 *61:6 *425:14 0.000606254
17 *61:12 *425:8 0
18 *408:16 *1964:C 0.000223495
19 *408:16 *425:14 1.22822e-05
20 *409:8 *1964:C 1.57571e-05
*RES
1 *2012:Q *425:8 39.9057 
2 *425:8 *425:12 16.5743 
3 *425:12 *425:14 6.815 
4 *425:14 *1964:C 32.6943 
5 *425:14 *1951:A4 23 
6 *425:12 *2043:A 23 
*END

*D_NET *426 0.00342474
*CONN
*I *2041:A I *D sky130_fd_sc_hd__dlygate4sd3_1
*I *1964:A I *D sky130_fd_sc_hd__or4b_2
*I *2002:Q O *D sky130_fd_sc_hd__dfxtp_2
*CAP
1 *2041:A 0.000577968
2 *1964:A 0
3 *2002:Q 9.8239e-05
4 *426:16 0.000561112
5 *426:8 0.00123732
6 *2041:A *443:8 0
7 *2041:A *523:10 0
8 *1964:B *426:16 9.82009e-05
9 *1964:C *426:16 0.000538216
10 *2008:CLK *426:16 5.055e-05
11 *409:8 *426:16 2.91858e-05
12 *416:46 *2041:A 0
13 *416:46 *426:16 0
14 *418:15 *2041:A 0
15 *421:35 *426:16 6.84069e-05
16 *421:54 *2041:A 0.000108713
17 *421:54 *426:16 5.68297e-05
*RES
1 *2002:Q *426:8 39.0979 
2 *426:8 *426:16 27.5114 
3 *426:16 *1964:A 23 
4 *426:8 *2041:A 48.875 
*END

*D_NET *427 0.00127891
*CONN
*I *2040:A I *D sky130_fd_sc_hd__dlygate4sd3_1
*I *2003:Q O *D sky130_fd_sc_hd__dfxtp_2
*CAP
1 *2040:A 3.155e-05
2 *2003:Q 0.000207093
3 *427:8 0.000238643
4 *2040:A *1945:B 0.000230604
5 *2040:A *493:94 0.000228909
6 *2009:CLK *427:8 0
7 *53:10 *427:8 0.000142085
8 *56:14 *427:8 0.000200024
*RES
1 *2003:Q *427:8 42.7229 
2 *427:8 *2040:A 40.5271 
*END

*D_NET *428 0.000373311
*CONN
*I *2037:A I *D sky130_fd_sc_hd__dlygate4sd3_1
*I *2004:Q O *D sky130_fd_sc_hd__dfxtp_2
*CAP
1 *2037:A 5.11342e-05
2 *2004:Q 0.000108509
3 *428:8 0.000159643
4 *416:25 *2037:A 5.40241e-05
*RES
1 *2004:Q *428:8 39.9057 
2 *428:8 *2037:A 39.0979 
*END

*D_NET *429 0.00253806
*CONN
*I *1951:A1 I *D sky130_fd_sc_hd__o41a_2
*I *1952:B I *D sky130_fd_sc_hd__or4_2
*I *2046:A I *D sky130_fd_sc_hd__dlygate4sd3_1
*I *2005:Q O *D sky130_fd_sc_hd__dfxtp_2
*CAP
1 *1951:A1 0
2 *1952:B 0
3 *2046:A 0
4 *2005:Q 0.000295033
5 *429:27 0.000464486
6 *429:14 0.000622101
7 *429:10 0.000452648
8 *429:10 *1951:A2 0.000170834
9 *429:10 *493:37 0
10 *429:14 *1951:A2 6.07611e-06
11 *429:14 *493:10 0
12 *429:14 *493:37 0
13 *429:14 *525:14 7.76364e-06
14 *429:27 *1967:A 0.00015609
15 *429:27 *493:88 2.93747e-05
16 *429:27 *493:116 1.14452e-05
17 *429:27 *526:18 0
18 *408:8 *429:14 4.65714e-05
19 *408:8 *429:27 0.000275638
*RES
1 *2005:Q *429:10 43.6964 
2 *429:10 *429:14 17.9621 
3 *429:14 *2046:A 23 
4 *429:14 *429:27 40.0671 
5 *429:27 *1952:B 23 
6 *429:10 *1951:A1 38 
*END

*D_NET *430 0.000806082
*CONN
*I *2036:A I *D sky130_fd_sc_hd__dlygate4sd3_1
*I *2006:Q O *D sky130_fd_sc_hd__dfxtp_2
*CAP
1 *2036:A 0
2 *2006:Q 0.000373871
3 *430:10 0.000373871
4 *430:10 *517:20 0
5 *430:10 *526:18 0
6 *430:10 *528:10 0
7 *421:8 *430:10 0
8 *421:12 *430:10 5.83407e-05
9 *421:92 *430:10 0
*RES
1 *2006:Q *430:10 44.2971 
2 *430:10 *2036:A 38 
*END

*D_NET *431 0.000618883
*CONN
*I *2039:A I *D sky130_fd_sc_hd__dlygate4sd3_1
*I *2007:Q O *D sky130_fd_sc_hd__dfxtp_2
*CAP
1 *2039:A 0
2 *2007:Q 0.000267771
3 *431:10 0.000267771
4 *431:10 *1947:B 2.5415e-05
5 *431:10 *1955:B 2.04774e-05
6 *431:10 *515:10 2.73039e-05
7 *407:34 *431:10 0
8 *411:8 *431:10 1.01436e-05
9 *419:46 *431:10 0
*RES
1 *2007:Q *431:10 42.4329 
2 *431:10 *2039:A 38 
*END

*D_NET *432 0.00254798
*CONN
*I *2044:A I *D sky130_fd_sc_hd__dlygate4sd3_1
*I *1951:A3 I *D sky130_fd_sc_hd__o41a_2
*I *2008:Q O *D sky130_fd_sc_hd__dfxtp_2
*CAP
1 *2044:A 0.000165062
2 *1951:A3 0.000363663
3 *2008:Q 5.81274e-05
4 *432:8 0.000586852
5 *1951:A3 *493:37 0.000166387
6 *1951:A3 *493:46 6.2088e-05
7 *2044:A *1980:D 9.79925e-05
8 *2044:A *493:46 0.00034252
9 *432:8 *1946:A 2.64616e-05
10 *432:8 *493:23 6.17437e-06
11 *61:6 *1951:A3 0.000351519
12 *418:67 *1951:A3 0.000103123
13 *418:67 *2044:A 0.000166531
14 *421:71 *2044:A 5.14826e-05
*RES
1 *2008:Q *432:8 38.6214 
2 *432:8 *1951:A3 44.9186 
3 *432:8 *2044:A 43.8207 
*END

*D_NET *433 0.000693098
*CONN
*I *2038:A I *D sky130_fd_sc_hd__dlygate4sd3_1
*I *2009:Q O *D sky130_fd_sc_hd__dfxtp_2
*CAP
1 *2038:A 0
2 *2009:Q 0.000251913
3 *433:8 0.000251913
4 *433:8 *1967:A 0.000189272
*RES
1 *2009:Q *433:8 27.4536 
2 *433:8 *2038:A 23 
*END

*D_NET *434 0.000972511
*CONN
*I *2045:A I *D sky130_fd_sc_hd__dlygate4sd3_1
*I *2010:Q O *D sky130_fd_sc_hd__dfxtp_2
*CAP
1 *2045:A 5.53593e-05
2 *2010:Q 0.000198778
3 *434:10 0.000254138
4 *434:10 *1948:B 7.75329e-06
5 *434:10 *1967:B 5.50106e-05
6 *434:10 *491:35 0.000136486
7 *2003:CLK *2045:A 9.84851e-05
8 *2003:D *2045:A 9.67842e-05
9 *50:10 *434:10 5.56203e-05
10 *416:25 *2045:A 1.40958e-05
*RES
1 *2010:Q *434:10 41.48 
2 *434:10 *2045:A 39.5743 
*END

*D_NET *435 0.000912749
*CONN
*I *2026:A I *D sky130_fd_sc_hd__dlygate4sd3_1
*I *1982:Q O *D sky130_fd_sc_hd__dfxtp_2
*CAP
1 *2026:A 0.000159169
2 *1982:Q 6.015e-05
3 *435:8 0.000219319
4 *2026:A *1955:B 0.000277963
5 *435:8 *1955:B 5.511e-05
6 *435:8 *478:83 0.000141038
*RES
1 *1982:Q *435:8 39.9057 
2 *435:8 *2026:A 41.9564 
*END

*D_NET *436 0.000310132
*CONN
*I *2025:A I *D sky130_fd_sc_hd__dlygate4sd3_1
*I *1981:Q O *D sky130_fd_sc_hd__dfxtp_2
*CAP
1 *2025:A 0
2 *1981:Q 4.89365e-05
3 *436:8 4.89365e-05
4 *436:8 *491:106 0.000143166
5 *3:14 *436:8 6.90927e-05
*RES
1 *1981:Q *436:8 39.9057 
2 *436:8 *2025:A 38 
*END

*D_NET *437 0.00106375
*CONN
*I *2027:A I *D sky130_fd_sc_hd__dlygate4sd3_1
*I *1980:Q O *D sky130_fd_sc_hd__dfxtp_2
*CAP
1 *2027:A 0
2 *1980:Q 0.000385037
3 *437:8 0.000385037
4 *437:8 *525:14 0.000217134
5 *3:34 *437:8 2.07484e-05
6 *49:10 *437:8 5.5792e-05
*RES
1 *1980:Q *437:8 30.3121 
2 *437:8 *2027:A 23 
*END

*D_NET *438 0.00972994
*CONN
*I *1627:D I *D sky130_fd_sc_hd__and4_2
*I *1623:B2 I *D sky130_fd_sc_hd__a22o_2
*I *1616:A I *D sky130_fd_sc_hd__nand2_2
*I *1690:A I *D sky130_fd_sc_hd__nand4_2
*I *1691:A1 I *D sky130_fd_sc_hd__a22o_4
*I *1617:A I *D sky130_fd_sc_hd__and3_2
*I *1612:D I *D sky130_fd_sc_hd__nand4_2
*I *1675:B2 I *D sky130_fd_sc_hd__a22oi_2
*I *1968:A I *D sky130_fd_sc_hd__and2_2
*I *1983:Q O *D sky130_fd_sc_hd__dfxtp_2
*CAP
1 *1627:D 0
2 *1623:B2 0
3 *1616:A 2.93494e-05
4 *1690:A 3.83705e-05
5 *1691:A1 0.00058698
6 *1617:A 0
7 *1612:D 2.77523e-05
8 *1675:B2 0.000143947
9 *1968:A 1.57774e-05
10 *1983:Q 8.4007e-05
11 *438:124 0.000139923
12 *438:78 0.000817754
13 *438:69 0.00038738
14 *438:67 0.000442395
15 *438:52 0.00047902
16 *438:46 0.000598581
17 *438:42 0.000745158
18 *438:16 0.000300141
19 *438:10 0.00097753
20 *438:8 0.000681268
21 *1612:D *454:43 0.000144501
22 *1612:D *513:23 0.000144501
23 *1675:B2 *1675:A1 0
24 *1675:B2 *492:53 5.67058e-05
25 *1691:A1 *1691:A2 5.59684e-05
26 *438:10 *439:19 0
27 *438:10 *445:8 4.49481e-05
28 *438:10 *445:23 3.98859e-05
29 *438:42 *439:19 0
30 *438:42 *439:32 0
31 *438:42 *445:23 9.60874e-05
32 *438:46 *1623:A2 4.65826e-05
33 *438:46 *454:56 0.000318946
34 *438:46 *492:53 9.77922e-06
35 *438:52 *492:53 0.000191255
36 *438:67 *485:26 2.5343e-05
37 *438:67 *513:8 0
38 *438:69 *485:26 0.000329417
39 *438:124 *1627:A 2.32101e-05
40 *438:124 *445:23 5.94125e-05
41 *438:124 *454:56 0.000180224
42 *438:124 *454:73 4.34745e-05
43 *438:124 *492:53 9.58714e-05
44 *1689:B1 *438:69 1.83667e-05
45 *1689:B1 *438:78 5.96687e-05
46 *1691:B1 *1691:A1 0.000101768
47 *1692:B *1690:A 5.15096e-05
48 *1692:B *438:78 0.000223043
49 *2015:A *1675:B2 1.41077e-05
50 *2015:A *1968:A 5.90675e-06
51 *2015:A *438:16 2.47702e-05
52 *3:46 *438:8 3.20631e-05
53 *3:46 *438:10 4.17581e-05
54 *55:8 *438:10 4.41821e-06
55 *70:8 *438:10 0
56 *93:19 *438:69 4.07715e-05
57 *94:10 *438:69 0.000139865
58 *95:10 *438:69 2.61756e-05
59 *168:21 *1690:A 1.14452e-05
60 *169:8 *1691:A1 0.000441065
61 *416:46 *438:10 0
62 *418:47 *1675:B2 9.17918e-05
*RES
1 *1983:Q *438:8 39.0979 
2 *438:8 *438:10 11.4136 
3 *438:10 *438:16 17.0714 
4 *438:16 *1968:A 23.4971 
5 *438:16 *1675:B2 26.9357 
6 *438:10 *438:42 19.7229 
7 *438:42 *438:46 5.75857 
8 *438:46 *438:52 19.6607 
9 *438:52 *1612:D 39.5743 
10 *438:52 *438:67 4.25679 
11 *438:67 *438:69 5.95536 
12 *438:69 *1617:A 38 
13 *438:69 *438:78 4.72286 
14 *438:78 *1691:A1 48.9993 
15 *438:78 *1690:A 38.8493 
16 *438:67 *1616:A 38.9425 
17 *438:46 *1623:B2 23 
18 *438:42 *438:124 33.5214 
19 *438:124 *1627:D 23 
*END

*D_NET *439 0.0110401
*CONN
*I *1612:B I *D sky130_fd_sc_hd__nand4_2
*I *1613:B1 I *D sky130_fd_sc_hd__a22oi_2
*I *1772:A I *D sky130_fd_sc_hd__and3_2
*I *1771:A1 I *D sky130_fd_sc_hd__a21oi_2
*I *1687:A I *D sky130_fd_sc_hd__nand4_2
*I *1686:A1 I *D sky130_fd_sc_hd__a22o_4
*I *1614:C I *D sky130_fd_sc_hd__and4_2
*I *1623:A2 I *D sky130_fd_sc_hd__a22o_2
*I *1969:A I *D sky130_fd_sc_hd__and2_2
*I *1984:Q O *D sky130_fd_sc_hd__dfxtp_2
*CAP
1 *1612:B 0.000131625
2 *1613:B1 2.80792e-05
3 *1772:A 0
4 *1771:A1 7.70667e-05
5 *1687:A 0.000292351
6 *1686:A1 0.000276826
7 *1614:C 0
8 *1623:A2 3.11551e-05
9 *1969:A 0
10 *1984:Q 0.000138989
11 *439:96 0.000295834
12 *439:81 0.000838762
13 *439:66 0.000879539
14 *439:49 0.000673915
15 *439:40 0.00040549
16 *439:34 0.00050808
17 *439:32 0.000716077
18 *439:19 0.00109671
19 *439:8 0.000970362
20 *1612:B *1612:A 1.83408e-05
21 *1612:B *454:43 1.21972e-05
22 *1612:B *513:23 1.37232e-05
23 *1612:B *513:36 2.02872e-05
24 *1613:B1 *440:38 1.37232e-05
25 *1613:B1 *513:23 1.37232e-05
26 *1623:A2 *454:56 6.03708e-05
27 *1623:A2 *492:53 0.000145958
28 *1686:A1 *485:20 6.59263e-05
29 *439:8 *1969:B 0.000273059
30 *439:19 *1969:B 0.000102389
31 *439:19 *445:8 0
32 *439:32 *513:36 0.000163352
33 *439:34 *1613:B2 2.32004e-05
34 *439:34 *454:43 2.9938e-05
35 *439:34 *513:23 0.000577189
36 *439:40 *441:19 8.51329e-05
37 *439:40 *441:36 1.83667e-05
38 *439:40 *454:43 1.94812e-05
39 *439:40 *513:8 0
40 *439:49 *441:36 8.92738e-05
41 *439:49 *441:46 8.58383e-05
42 *439:49 *513:8 0
43 *439:66 *441:46 2.7636e-05
44 *439:81 *441:46 0.000688637
45 *439:81 *495:26 0
46 *439:81 *509:10 0
47 *1686:B2 *1686:A1 7.73389e-05
48 *1689:A2 *1687:A 0.000104558
49 *1689:B1 *1687:A 5.3304e-05
50 *1689:B1 *439:66 9.67842e-05
51 *1771:B1 *439:96 0.000180915
52 *1776:A *439:81 0
53 *1778:A *439:96 0
54 *1990:CLK *439:19 7.12002e-05
55 *72:10 *439:19 0
56 *92:8 *439:40 5.86165e-05
57 *92:8 *439:49 4.21594e-06
58 *93:19 *439:49 0
59 *161:10 *439:81 7.91493e-05
60 *164:12 *439:49 1.01436e-05
61 *164:12 *439:66 0.000111852
62 *164:12 *439:81 1.59312e-05
63 *165:37 *439:49 9.20311e-06
64 *166:8 *439:49 0
65 *166:8 *439:81 0
66 *244:10 *439:81 0.000204961
67 *244:10 *439:96 6.7177e-06
68 *420:8 *439:19 0
69 *420:10 *439:19 0
70 *420:12 *439:19 0
71 *438:10 *439:19 0
72 *438:42 *439:19 0
73 *438:42 *439:32 0
74 *438:46 *1623:A2 4.65826e-05
*RES
1 *1984:Q *439:8 26.5007 
2 *439:8 *1969:A 23 
3 *439:8 *439:19 29.2929 
4 *439:19 *1623:A2 39.6002 
5 *439:19 *439:32 18.3143 
6 *439:32 *439:34 7.76786 
7 *439:34 *439:40 18.2314 
8 *439:40 *1614:C 38 
9 *439:40 *439:49 6.13143 
10 *439:49 *1686:A1 42.93 
11 *439:49 *439:66 17.6514 
12 *439:66 *1687:A 27.3293 
13 *439:66 *439:81 42.1179 
14 *439:81 *1771:A1 24.0979 
15 *439:81 *439:96 36.1936 
16 *439:96 *1772:A 23 
17 *439:34 *1613:B1 23.8493 
18 *439:32 *1612:B 25.4236 
*END

*D_NET *440 0.00868737
*CONN
*I *1769:A I *D sky130_fd_sc_hd__nand2_2
*I *1832:B2 I *D sky130_fd_sc_hd__a22oi_2
*I *1833:A I *D sky130_fd_sc_hd__and4_2
*I *1768:A I *D sky130_fd_sc_hd__and4_2
*I *1684:A I *D sky130_fd_sc_hd__nand4_4
*I *1685:A1 I *D sky130_fd_sc_hd__a22o_4
*I *1614:A I *D sky130_fd_sc_hd__and4_2
*I *1613:A1 I *D sky130_fd_sc_hd__a22oi_2
*I *1970:A I *D sky130_fd_sc_hd__and2_2
*I *1985:Q O *D sky130_fd_sc_hd__dfxtp_2
*CAP
1 *1769:A 0.000525195
2 *1832:B2 0
3 *1833:A 4.54044e-05
4 *1768:A 0.000239763
5 *1684:A 0
6 *1685:A1 0
7 *1614:A 5.15114e-05
8 *1613:A1 0
9 *1970:A 6.84452e-05
10 *1985:Q 5.50027e-05
11 *440:99 0.000635704
12 *440:86 0.000454457
13 *440:75 0.00123316
14 *440:66 0.000993256
15 *440:53 0.000366515
16 *440:38 0.000315325
17 *440:25 0.000391574
18 *440:8 0.000319315
19 *1614:A *1685:B1 9.84851e-05
20 *1768:A *1768:C 3.16784e-05
21 *1769:A *1769:B 2.02517e-05
22 *1769:A *1832:A1 1.59094e-05
23 *1769:A *1832:A2 5.90675e-06
24 *1769:A *495:18 2.29091e-05
25 *1970:A *492:41 0.00014196
26 *440:8 *492:34 0.00014411
27 *440:25 *441:19 9.03054e-05
28 *440:25 *454:43 5.50106e-05
29 *440:25 *492:34 2.55642e-05
30 *440:25 *513:8 0
31 *440:38 *441:19 5.3656e-05
32 *440:38 *454:10 0
33 *440:38 *454:43 7.27085e-05
34 *440:53 *1614:B 2.18409e-05
35 *440:53 *1685:A2 1.19796e-05
36 *440:53 *1685:B1 5.50049e-05
37 *440:53 *441:19 9.48381e-06
38 *440:53 *441:36 6.7177e-06
39 *440:53 *454:10 0
40 *440:66 *1614:B 0.000139352
41 *440:66 *1614:D 2.02517e-05
42 *440:66 *1684:B 0
43 *440:66 *1685:A2 2.93845e-05
44 *440:66 *1685:B1 4.21471e-05
45 *440:66 *454:19 0
46 *440:75 *1684:B 0
47 *440:75 *474:16 0
48 *440:75 *485:10 4.17929e-05
49 *440:75 *485:12 0.00042242
50 *440:75 *485:14 9.6289e-05
51 *440:75 *485:20 4.68476e-05
52 *440:86 *485:10 1.22906e-05
53 *440:99 *1885:A 4.2255e-05
54 *440:99 *441:61 1.59312e-05
55 *440:99 *441:72 1.50637e-05
56 *1613:B1 *440:38 1.37232e-05
57 *1687:D *440:75 7.66188e-05
58 *1835:A *1833:A 2.64616e-05
59 *1835:A *440:86 0.000182873
60 *1835:A *440:99 6.25829e-05
61 *19:11 *440:86 0
62 *20:11 *440:86 0
63 *20:11 *440:99 0
64 *73:8 *440:8 8.85189e-05
65 *163:8 *440:66 5.86165e-05
66 *163:8 *440:75 7.23925e-05
67 *245:8 *440:86 0.000360161
68 *246:8 *1769:A 9.91798e-05
69 *311:8 *440:99 0.00014411
*RES
1 *1985:Q *440:8 39.9057 
2 *440:8 *1970:A 39.5743 
3 *440:8 *440:25 19.205 
4 *440:25 *1613:A1 23 
5 *440:25 *440:38 19.3293 
6 *440:38 *1614:A 39.0979 
7 *440:38 *440:53 16.4707 
8 *440:53 *1685:A1 23 
9 *440:53 *440:66 21.7114 
10 *440:66 *1684:A 38 
11 *440:66 *440:75 17.7521 
12 *440:75 *1768:A 41.48 
13 *440:75 *440:86 7.54 
14 *440:86 *1833:A 38.6214 
15 *440:86 *440:99 18.3143 
16 *440:99 *1832:B2 23 
17 *440:99 *1769:A 30.7886 
*END

*D_NET *441 0.0103867
*CONN
*I *1684:D I *D sky130_fd_sc_hd__nand4_4
*I *1683:B I *D sky130_fd_sc_hd__nand2_2
*I *1832:A2 I *D sky130_fd_sc_hd__a22oi_2
*I *1885:A I *D sky130_fd_sc_hd__and3_2
*I *1833:C I *D sky130_fd_sc_hd__and4_2
*I *1768:D I *D sky130_fd_sc_hd__and4_2
*I *1685:B1 I *D sky130_fd_sc_hd__a22o_4
*I *1971:A I *D sky130_fd_sc_hd__and2_2
*I *1986:Q O *D sky130_fd_sc_hd__dfxtp_2
*CAP
1 *1684:D 0
2 *1683:B 0
3 *1832:A2 0.000269831
4 *1885:A 0.000233787
5 *1833:C 4.99221e-05
6 *1768:D 0
7 *1685:B1 0.000222318
8 *1971:A 0
9 *1986:Q 0.000218768
10 *441:72 0.000542369
11 *441:61 0.000407353
12 *441:52 0.000402976
13 *441:46 0.000798287
14 *441:36 0.000850524
15 *441:19 0.000615337
16 *441:10 0.000475254
17 *1685:B1 *1614:B 1.03955e-05
18 *1685:B1 *1614:D 5.41288e-05
19 *1685:B1 *1685:A2 5.67058e-05
20 *1832:A2 *485:80 2.24608e-05
21 *1832:A2 *495:18 0.000219383
22 *1885:A *485:80 2.34364e-05
23 *1885:A *495:10 0.000168744
24 *441:10 *478:64 0.000385726
25 *441:10 *492:34 0.000385726
26 *441:19 *454:10 0
27 *441:19 *492:34 1.14452e-05
28 *441:19 *513:8 0
29 *441:36 *1685:A2 0
30 *441:46 *1683:A 5.50106e-05
31 *441:46 *474:16 0
32 *441:46 *495:26 6.78463e-05
33 *441:46 *497:6 5.25188e-05
34 *441:52 *474:10 6.22475e-05
35 *441:52 *474:16 4.6318e-06
36 *441:52 *485:12 0.000140949
37 *441:52 *497:6 2.93845e-05
38 *441:61 *474:8 0.000107548
39 *441:61 *474:10 3.20914e-05
40 *441:61 *485:10 0.000488373
41 *441:61 *485:12 2.55642e-05
42 *441:61 *485:69 0.000223043
43 *441:61 *485:80 5.94125e-05
44 *441:61 *495:20 0
45 *441:72 *485:80 7.17297e-05
46 *1614:A *1685:B1 9.84851e-05
47 *1767:A *441:46 5.62433e-06
48 *1769:A *1832:A2 5.90675e-06
49 *1770:A2 *441:61 6.36037e-05
50 *1834:A *1885:A 2.3529e-05
51 *1835:B *1833:C 5.3304e-05
52 *2093:A *441:46 0.000191148
53 *22:11 *1885:A 0
54 *161:10 *441:46 5.41385e-05
55 *162:8 *441:46 0.000113614
56 *162:17 *441:46 0.000113265
57 *167:10 *441:46 0.000194327
58 *246:8 *1832:A2 1.5769e-05
59 *308:8 *1885:A 2.95125e-05
60 *311:8 *1885:A 8.26312e-05
61 *311:12 *1885:A 9.67842e-05
62 *420:62 *441:10 7.44257e-05
63 *439:40 *441:19 8.51329e-05
64 *439:40 *441:36 1.83667e-05
65 *439:49 *441:36 8.92738e-05
66 *439:49 *441:46 8.58383e-05
67 *439:66 *441:46 2.7636e-05
68 *439:81 *441:46 0.000688637
69 *440:25 *441:19 9.03054e-05
70 *440:38 *441:19 5.3656e-05
71 *440:53 *1685:B1 5.50049e-05
72 *440:53 *441:19 9.48381e-06
73 *440:53 *441:36 6.7177e-06
74 *440:66 *1685:B1 4.21471e-05
75 *440:99 *1885:A 4.2255e-05
76 *440:99 *441:61 1.59312e-05
77 *440:99 *441:72 1.50637e-05
*RES
1 *1986:Q *441:10 44.6493 
2 *441:10 *1971:A 38 
3 *441:10 *441:19 5.42714 
4 *441:19 *1685:B1 43.4479 
5 *441:19 *441:36 2.96214 
6 *441:36 *441:46 33.8293 
7 *441:46 *441:52 17.5271 
8 *441:52 *1768:D 38 
9 *441:52 *441:61 10.3571 
10 *441:61 *1833:C 38.6214 
11 *441:61 *441:72 1.02536 
12 *441:72 *1885:A 44.2661 
13 *441:72 *1832:A2 42.1739 
14 *441:46 *1683:B 23 
15 *441:36 *1684:D 38 
*END

*D_NET *442 0.0100529
*CONN
*I *1696:A I *D sky130_fd_sc_hd__nand2_2
*I *1607:A I *D sky130_fd_sc_hd__and2_2
*I *1609:D I *D sky130_fd_sc_hd__and4_2
*I *1627:B I *D sky130_fd_sc_hd__and4_2
*I *1610:D I *D sky130_fd_sc_hd__nand4_2
*I *1622:B2 I *D sky130_fd_sc_hd__a22o_2
*I *1675:A2 I *D sky130_fd_sc_hd__a22oi_2
*I *2028:A I *D sky130_fd_sc_hd__dlygate4sd3_1
*I *1989:Q O *D sky130_fd_sc_hd__dfxtp_2
*CAP
1 *1696:A 0.000230956
2 *1607:A 3.6708e-05
3 *1609:D 0.000120241
4 *1627:B 0.000358963
5 *1610:D 7.13929e-05
6 *1622:B2 0.000284092
7 *1675:A2 9.37445e-05
8 *2028:A 0.000321234
9 *1989:Q 5.45698e-05
10 *442:88 0.000326872
11 *442:77 0.000782935
12 *442:49 0.000487177
13 *442:36 0.000518912
14 *442:32 0.00101523
15 *442:21 0.000531557
16 *442:8 0.000579872
17 *1609:D *1609:A 6.17437e-06
18 *1609:D *1609:C 5.50106e-05
19 *1609:D *443:81 5.3304e-05
20 *1609:D *443:87 5.3304e-05
21 *1610:D *1610:C 1.37136e-05
22 *1610:D *443:41 1.3822e-05
23 *1610:D *454:73 1.74874e-06
24 *1622:B2 *1622:B1 0.000223698
25 *1627:B *443:41 9.67842e-05
26 *1627:B *454:56 5.50106e-05
27 *1627:B *454:73 0.000216571
28 *1627:B *497:81 1.03955e-05
29 *1696:A *443:87 0.000197479
30 *1696:A *497:50 0.000188256
31 *1696:A *514:33 9.58714e-05
32 *2028:A *443:22 0.000141692
33 *2028:A *523:10 1.59094e-05
34 *442:21 *443:22 9.41957e-05
35 *442:21 *444:12 0.000139647
36 *442:32 *1610:C 5.58394e-05
37 *442:32 *443:22 0.000217608
38 *442:32 *444:12 1.01436e-05
39 *442:32 *454:73 0
40 *442:32 *506:36 1.02561e-05
41 *442:36 *1622:B1 5.3304e-05
42 *442:36 *443:58 2.32101e-05
43 *442:49 *1610:C 1.67942e-05
44 *442:49 *1622:B1 2.24608e-05
45 *442:49 *443:41 3.3746e-05
46 *442:77 *443:58 1.22803e-05
47 *442:77 *443:87 3.70094e-05
48 *442:77 *444:31 0
49 *442:77 *444:44 0
50 *442:77 *497:50 6.48142e-05
51 *442:77 *497:58 0.000186073
52 *442:77 *497:75 0
53 *442:77 *506:24 0.000177816
54 *442:77 *506:30 0.00015795
55 *442:77 *506:36 0.000479741
56 *442:88 *443:87 0.000164291
57 *442:88 *497:50 0.000157309
58 *1624:D *442:77 6.61686e-06
59 *89:30 *442:36 2.93747e-05
60 *89:30 *442:77 0.000188926
61 *101:8 *442:36 1.40958e-05
62 *101:23 *442:36 1.03955e-05
63 *101:23 *442:77 0.000219882
64 *102:10 *442:32 5.66921e-05
65 *102:10 *442:77 3.0647e-05
66 *154:8 *442:32 0
67 *172:6 *1607:A 5.3304e-05
68 *174:14 *1696:A 0
69 *416:71 *2028:A 4.6318e-06
70 *416:71 *442:21 7.06668e-05
71 *418:15 *2028:A 0
72 *418:47 *442:21 0
73 *418:47 *442:32 0
*RES
1 *1989:Q *442:8 38.6214 
2 *442:8 *2028:A 44.67 
3 *442:8 *442:21 4.72286 
4 *442:21 *1675:A2 39.5743 
5 *442:21 *442:32 5.075 
6 *442:32 *442:36 17.5271 
7 *442:36 *1622:B2 27.3293 
8 *442:36 *442:49 16.2014 
9 *442:49 *1610:D 38.8493 
10 *442:49 *1627:B 43.3857 
11 *442:32 *442:77 17.1721 
12 *442:77 *1609:D 40.0507 
13 *442:77 *442:88 2.25786 
14 *442:88 *1607:A 38.6214 
15 *442:88 *1696:A 43.655 
*END

*D_NET *443 0.0154498
*CONN
*I *1973:A I *D sky130_fd_sc_hd__and2_2
*I *1603:B1 I *D sky130_fd_sc_hd__a22o_2
*I *1609:B I *D sky130_fd_sc_hd__and4_2
*I *1701:A I *D sky130_fd_sc_hd__nand4_2
*I *1784:A I *D sky130_fd_sc_hd__nand2_2
*I *1700:A1 I *D sky130_fd_sc_hd__a22o_2
*I *1604:C I *D sky130_fd_sc_hd__and4_2
*I *1605:C I *D sky130_fd_sc_hd__nand4_2
*I *1622:A2 I *D sky130_fd_sc_hd__a22o_2
*I *1610:B I *D sky130_fd_sc_hd__nand4_2
*I *1990:Q O *D sky130_fd_sc_hd__dfxtp_2
*CAP
1 *1973:A 0.000445547
2 *1603:B1 0
3 *1609:B 0
4 *1701:A 0
5 *1784:A 0.000356635
6 *1700:A1 0.00010295
7 *1604:C 7.47e-05
8 *1605:C 0.000158162
9 *1622:A2 1.96307e-05
10 *1610:B 0
11 *1990:Q 5.60739e-05
12 *443:126 0.000853284
13 *443:112 0.000627717
14 *443:87 0.00057909
15 *443:81 0.000398388
16 *443:62 0.000428407
17 *443:58 0.000604256
18 *443:41 0.000855981
19 *443:22 0.000945397
20 *443:12 0.00148208
21 *443:8 0.000521534
22 *1604:C *1604:D 9.41704e-05
23 *1604:C *497:50 5.50049e-05
24 *1604:C *512:80 2.43944e-05
25 *1605:C *1605:D 3.61695e-05
26 *1605:C *497:58 0.000136738
27 *1605:C *497:71 1.24376e-05
28 *1622:A2 *1622:B1 3.04324e-05
29 *1784:A *445:51 0
30 *1784:A *512:68 0
31 *1973:A *1972:A 9.61805e-05
32 *1973:A *1973:B 0.000140312
33 *1973:A *493:57 6.63793e-06
34 *443:12 *1942:A 8.16251e-05
35 *443:22 *444:12 0.000139647
36 *443:22 *444:31 0.000103197
37 *443:22 *494:23 3.81391e-05
38 *443:22 *523:10 8.4047e-05
39 *443:41 *1622:A1 7.48591e-05
40 *443:41 *1622:B1 6.7177e-06
41 *443:41 *497:81 0.000161056
42 *443:58 *1622:B1 0.000127821
43 *443:58 *444:44 0.000178517
44 *443:58 *506:30 5.3304e-05
45 *443:58 *506:36 0.000725851
46 *443:62 *497:71 0.000161121
47 *443:62 *506:24 8.62876e-05
48 *443:62 *506:30 0.000133316
49 *443:81 *506:24 0.000186025
50 *443:87 *1604:D 7.39034e-05
51 *443:87 *497:50 2.34364e-05
52 *443:87 *506:22 0.000417246
53 *443:87 *506:24 6.16531e-05
54 *443:87 *512:80 1.12487e-05
55 *443:87 *514:33 0.000161121
56 *443:112 *512:80 8.4327e-05
57 *443:112 *514:33 5.50509e-05
58 *1608:B *443:62 0
59 *1608:B *443:81 0
60 *1609:D *443:81 5.3304e-05
61 *1609:D *443:87 5.3304e-05
62 *1610:D *443:41 1.3822e-05
63 *1627:B *443:41 9.67842e-05
64 *1696:A *443:87 0.000197479
65 *1700:B1 *1700:A1 5.50106e-05
66 *1700:B1 *1784:A 1.22803e-05
67 *1700:B1 *443:126 4.334e-05
68 *1700:B2 *1700:A1 2.18409e-05
69 *1700:B2 *1784:A 3.83778e-05
70 *1700:B2 *443:126 3.83778e-05
71 *1701:C *443:126 0.000195942
72 *1702:C *443:126 6.74169e-05
73 *2013:A *443:12 4.91172e-06
74 *2028:A *443:22 0.000141692
75 *2041:A *443:8 0
76 *74:10 *1973:A 0.00010655
77 *76:10 *443:22 0
78 *77:10 *443:22 9.63815e-05
79 *83:8 *443:112 4.9224e-05
80 *83:12 *443:112 2.02872e-05
81 *83:12 *443:126 5.3304e-05
82 *86:10 *443:81 0
83 *89:12 *443:41 3.13452e-05
84 *91:46 *443:58 0.000195248
85 *101:8 *443:58 0.000141954
86 *102:10 *443:22 8.47428e-05
87 *174:14 *443:112 0
88 *178:23 *443:112 5.94125e-05
89 *180:8 *443:112 0
90 *257:8 *443:112 5.3304e-05
91 *257:8 *443:126 0.0001131
92 *257:10 *443:112 9.48381e-06
93 *416:46 *443:8 8.85189e-05
94 *418:6 *1973:A 7.42621e-05
95 *418:6 *443:12 8.97159e-05
96 *418:15 *443:12 6.65155e-05
97 *418:15 *443:22 0
98 *418:31 *443:22 0
99 *418:62 *1973:A 0.000128391
100 *422:80 *443:22 0
101 *442:21 *443:22 9.41957e-05
102 *442:32 *443:22 0.000217608
103 *442:36 *443:58 2.32101e-05
104 *442:49 *443:41 3.3746e-05
105 *442:77 *443:58 1.22803e-05
106 *442:77 *443:87 3.70094e-05
107 *442:88 *443:87 0.000164291
*RES
1 *1990:Q *443:8 39.2014 
2 *443:8 *443:12 21.815 
3 *443:12 *443:22 44.2929 
4 *443:22 *1610:B 23 
5 *443:22 *443:41 37.7057 
6 *443:41 *1622:A2 23.3521 
7 *443:41 *443:58 43.4021 
8 *443:58 *443:62 17.9621 
9 *443:62 *1605:C 41.045 
10 *443:62 *443:81 18.2314 
11 *443:81 *443:87 23.5136 
12 *443:87 *1604:C 39.5743 
13 *443:87 *443:112 20.9657 
14 *443:112 *443:126 22.8714 
15 *443:126 *1700:A1 39.595 
16 *443:126 *1784:A 44.4836 
17 *443:112 *1701:A 23 
18 *443:81 *1609:B 23 
19 *443:58 *1603:B1 23 
20 *443:12 *1973:A 32.2386 
*END

*D_NET *444 0.0144429
*CONN
*I *1605:A I *D sky130_fd_sc_hd__nand4_2
*I *1604:A I *D sky130_fd_sc_hd__and4_2
*I *1698:A I *D sky130_fd_sc_hd__nand4_2
*I *1823:B2 I *D sky130_fd_sc_hd__a22o_2
*I *1782:A I *D sky130_fd_sc_hd__nand2_2
*I *1781:A I *D sky130_fd_sc_hd__and4_2
*I *1699:A1 I *D sky130_fd_sc_hd__a22o_2
*I *1603:A1 I *D sky130_fd_sc_hd__a22o_2
*I *2033:A I *D sky130_fd_sc_hd__dlygate4sd3_1
*I *1991:Q O *D sky130_fd_sc_hd__dfxtp_2
*CAP
1 *1605:A 0
2 *1604:A 0
3 *1698:A 8.2488e-05
4 *1823:B2 0.000193149
5 *1782:A 0
6 *1781:A 0
7 *1699:A1 0.000149456
8 *1603:A1 0
9 *2033:A 0
10 *1991:Q 0.000734021
11 *444:122 0.000174229
12 *444:100 0.000206782
13 *444:76 0.000561427
14 *444:67 0.000992997
15 *444:52 0.00113964
16 *444:44 0.00142641
17 *444:38 0.00115813
18 *444:31 0.000723363
19 *444:12 0.000732257
20 *444:8 0.000790166
21 *1698:A *1604:B 0.000185428
22 *1698:A *497:25 0
23 *1699:A1 *1699:A2 7.72746e-05
24 *1699:A1 *1699:B1 3.86462e-05
25 *1823:B2 *512:50 0.00025214
26 *444:8 *1975:A 5.83407e-05
27 *444:8 *1975:B 0.000312348
28 *444:8 *445:12 0.000102052
29 *444:8 *445:23 2.93747e-05
30 *444:31 *497:75 0.000803707
31 *444:44 *445:23 0
32 *444:44 *497:50 0
33 *444:44 *497:58 0
34 *444:52 *506:20 0.000513517
35 *444:67 *506:12 0.00104298
36 *444:67 *506:20 3.70187e-05
37 *444:76 *506:10 0.000398915
38 *444:76 *506:12 0.000122627
39 *444:76 *512:50 6.38845e-05
40 *444:100 *445:23 0
41 *444:122 *1603:A2 1.53833e-05
42 *444:122 *497:71 6.4393e-05
43 *1606:B *444:122 2.96369e-05
44 *1608:B *444:122 6.07611e-06
45 *1624:D *444:31 0.00025214
46 *1706:A2 *444:122 4.99753e-06
47 *82:8 *444:31 0
48 *102:10 *444:31 0.000267012
49 *177:10 *1698:A 3.06338e-05
50 *243:10 *444:52 0
51 *243:10 *444:67 0
52 *259:17 *444:76 4.14048e-05
53 *387:18 *1823:B2 5.73288e-05
54 *442:21 *444:12 0.000139647
55 *442:32 *444:12 1.01436e-05
56 *442:77 *444:31 0
57 *442:77 *444:44 0
58 *443:22 *444:12 0.000139647
59 *443:22 *444:31 0.000103197
60 *443:58 *444:44 0.000178517
*RES
1 *1991:Q *444:8 48.6264 
2 *444:8 *444:12 16.9057 
3 *444:12 *2033:A 23 
4 *444:12 *444:31 46.5921 
5 *444:31 *1603:A1 23 
6 *444:31 *444:38 0.849286 
7 *444:38 *444:44 30.4943 
8 *444:44 *444:52 38.7207 
9 *444:52 *1699:A1 40.1957 
10 *444:52 *444:67 15.3286 
11 *444:67 *1781:A 38 
12 *444:67 *444:76 8.94857 
13 *444:76 *1782:A 38 
14 *444:76 *1823:B2 42.5571 
15 *444:44 *444:100 16.9057 
16 *444:100 *1698:A 25.5479 
17 *444:100 *1604:A 23 
18 *444:38 *444:122 33.0036 
19 *444:122 *1605:A 23 
*END

*D_NET *445 0.0125275
*CONN
*I *1879:A I *D sky130_fd_sc_hd__and3_2
*I *1823:A2 I *D sky130_fd_sc_hd__a22o_2
*I *1824:A I *D sky130_fd_sc_hd__nand2_2
*I *1697:B I *D sky130_fd_sc_hd__nand2_2
*I *1781:D I *D sky130_fd_sc_hd__and4_2
*I *1698:D I *D sky130_fd_sc_hd__nand4_2
*I *1699:B1 I *D sky130_fd_sc_hd__a22o_2
*I *2030:A I *D sky130_fd_sc_hd__dlygate4sd3_1
*I *1992:Q O *D sky130_fd_sc_hd__dfxtp_2
*CAP
1 *1879:A 0
2 *1823:A2 0
3 *1824:A 0
4 *1697:B 0
5 *1781:D 0
6 *1698:D 1.48611e-05
7 *1699:B1 7.24145e-05
8 *2030:A 0
9 *1992:Q 0.000110617
10 *445:95 0.000124509
11 *445:87 0.000348969
12 *445:73 0.000850257
13 *445:58 0.000674899
14 *445:51 0.000623416
15 *445:27 0.000168208
16 *445:23 0.00208142
17 *445:12 0.00154525
18 *445:8 0.000229698
19 *1698:D *1699:A2 1.71416e-05
20 *1698:D *497:25 0
21 *1699:B1 *1699:A2 0.000144918
22 *1699:B1 *497:25 0.000299745
23 *445:23 *1622:A1 0
24 *445:23 *1675:A1 0
25 *445:23 *492:53 0.000215782
26 *445:23 *506:12 1.83564e-05
27 *445:23 *506:20 6.68793e-05
28 *445:27 *1699:A2 4.21281e-05
29 *445:27 *497:25 0.000180218
30 *445:51 *506:12 0.000481934
31 *445:58 *1697:A 0.000270682
32 *445:58 *512:66 0.000270682
33 *445:73 *1697:A 5.3304e-05
34 *445:73 *1781:C 0
35 *445:73 *512:33 0
36 *445:73 *512:50 0
37 *445:73 *512:66 4.2573e-05
38 *445:73 *514:14 0.00010357
39 *445:87 *1823:B1 5.86344e-05
40 *445:87 *514:51 9.84851e-05
41 *445:87 *514:70 2.96154e-05
42 *445:95 *1823:B1 3.72369e-05
43 *445:95 *512:50 1.14452e-05
44 *1694:A *445:23 0.000141869
45 *1699:A1 *1699:B1 3.86462e-05
46 *1700:B1 *445:51 5.44006e-05
47 *1783:B1 *445:73 0
48 *1784:A *445:51 0
49 *1785:A *445:73 9.28842e-05
50 *70:8 *445:23 0
51 *91:10 *445:23 0.000223043
52 *91:29 *445:23 0.000223043
53 *97:14 *445:23 2.24151e-05
54 *98:8 *445:23 0.00057083
55 *98:19 *445:23 0.000249918
56 *170:29 *445:23 1.94522e-05
57 *171:10 *445:23 0
58 *175:10 *445:51 6.16531e-05
59 *176:8 *445:23 2.76611e-06
60 *176:8 *445:51 6.95665e-05
61 *259:34 *445:73 0.000218943
62 *260:10 *445:73 7.55491e-05
63 *261:12 *445:51 0
64 *261:12 *445:73 0.000191157
65 *299:8 *445:73 0
66 *300:10 *445:73 0
67 *300:10 *445:95 0.000191166
68 *387:18 *445:73 4.17736e-05
69 *387:18 *445:87 0.000343248
70 *387:18 *445:95 3.5536e-05
71 *438:10 *445:8 4.49481e-05
72 *438:10 *445:23 3.98859e-05
73 *438:42 *445:23 9.60874e-05
74 *438:124 *445:23 5.94125e-05
75 *439:19 *445:8 0
76 *444:8 *445:12 0.000102052
77 *444:8 *445:23 2.93747e-05
78 *444:44 *445:23 0
79 *444:100 *445:23 0
*RES
1 *1992:Q *445:8 40.2579 
2 *445:8 *445:12 17.5271 
3 *445:12 *2030:A 23 
4 *445:12 *445:23 46.755 
5 *445:23 *445:27 17.0507 
6 *445:27 *1699:B1 26.5007 
7 *445:27 *1698:D 23.4971 
8 *445:23 *445:51 29.9971 
9 *445:51 *1781:D 23 
10 *445:51 *445:58 3.00357 
11 *445:58 *1697:B 23 
12 *445:58 *445:73 43.0086 
13 *445:73 *445:87 35.3236 
14 *445:87 *445:95 33.0243 
15 *445:95 *1824:A 23 
16 *445:87 *1823:A2 23 
17 *445:73 *1879:A 23 
*END

*D_NET *446 0.0101682
*CONN
*I *1649:A I *D sky130_fd_sc_hd__nand2_2
*I *1737:A I *D sky130_fd_sc_hd__and2_2
*I *1654:D I *D sky130_fd_sc_hd__nand4_2
*I *1678:B I *D sky130_fd_sc_hd__and3_2
*I *1666:B2 I *D sky130_fd_sc_hd__a22o_2
*I *1653:D I *D sky130_fd_sc_hd__and4_2
*I *1934:A2 I *D sky130_fd_sc_hd__a21oi_2
*I *2032:A I *D sky130_fd_sc_hd__dlygate4sd3_1
*I *1993:Q O *D sky130_fd_sc_hd__dfxtp_2
*CAP
1 *1649:A 0.00010566
2 *1737:A 0.000721124
3 *1654:D 0.000122236
4 *1678:B 0
5 *1666:B2 3.4021e-05
6 *1653:D 0.000462128
7 *1934:A2 0
8 *2032:A 0
9 *1993:Q 9.13687e-05
10 *446:87 0.000826784
11 *446:85 0.000462128
12 *446:62 0.000256107
13 *446:54 0.000630792
14 *446:38 0.000233629
15 *446:30 0.000499533
16 *446:23 0.000771539
17 *446:14 5.9244e-05
18 *446:8 0.000874675
19 *1654:D *1654:A 5.50106e-05
20 *1654:D *480:8 9.84794e-05
21 *1666:B2 *1666:A1 0.000178742
22 *1666:B2 *455:60 0.000222104
23 *1666:B2 *519:91 5.58003e-05
24 *1737:A *1648:A2 8.27491e-05
25 *1737:A *1648:B1 7.43025e-06
26 *1737:A *1871:B 1.24906e-05
27 *1737:A *455:34 2.81066e-05
28 *1737:A *455:49 1.59094e-05
29 *1737:A *466:42 5.08482e-05
30 *446:14 *448:14 5.86165e-05
31 *446:14 *529:8 0.000169683
32 *446:38 *1653:B 3.44001e-05
33 *446:38 *447:31 0.000320089
34 *446:38 *450:10 0.000225156
35 *446:38 *455:49 0.000100486
36 *446:38 *455:60 5.5792e-05
37 *446:38 *519:84 0.000516236
38 *446:38 *519:91 0.000176248
39 *446:62 *1678:A 0
40 *446:85 *455:60 5.3304e-05
41 *446:85 *480:12 0.000773489
42 *1651:B1_N *1649:A 0
43 *1678:C *446:62 1.39431e-05
44 *1935:B *446:54 0.000115062
45 *127:8 *1649:A 0.000321555
46 *156:8 *446:62 0
47 *157:17 *446:62 8.93663e-05
48 *215:6 *1649:A 0.000135799
49 *215:6 *1737:A 5.03667e-05
50 *383:10 *446:38 0
*RES
1 *1993:Q *446:8 24.595 
2 *446:8 *446:14 32.2579 
3 *446:14 *2032:A 23 
4 *446:8 *446:23 11.4757 
5 *446:23 *1934:A2 23 
6 *446:23 *446:30 0.621429 
7 *446:30 *446:38 38.8243 
8 *446:38 *1653:D 23 
9 *446:38 *1666:B2 25.5271 
10 *446:30 *446:54 4.93 
11 *446:54 *446:62 34.2879 
12 *446:62 *1678:B 23 
13 *446:54 *1654:D 25.5271 
14 *1653:D *446:85 48.9786 
15 *446:85 *446:87 15 
16 *446:87 *1737:A 33.5643 
17 *446:87 *1649:A 27.4536 
*END

*D_NET *447 0.0141474
*CONN
*I *1653:B I *D sky130_fd_sc_hd__and4_2
*I *1666:A2 I *D sky130_fd_sc_hd__a22o_2
*I *1654:B I *D sky130_fd_sc_hd__nand4_2
*I *1648:B1 I *D sky130_fd_sc_hd__a22o_2
*I *1733:C I *D sky130_fd_sc_hd__and4bb_2
*I *1732:A1_N I *D sky130_fd_sc_hd__o2bb2a_2
*I *1646:B I *D sky130_fd_sc_hd__and3_2
*I *1755:A1 I *D sky130_fd_sc_hd__a21oi_2
*I *1756:A I *D sky130_fd_sc_hd__and3_2
*I *1977:A I *D sky130_fd_sc_hd__and2_2
*I *1994:Q O *D sky130_fd_sc_hd__dfxtp_2
*CAP
1 *1653:B 0.000124007
2 *1666:A2 8.27394e-05
3 *1654:B 0
4 *1648:B1 4.94312e-05
5 *1733:C 0
6 *1732:A1_N 0.00011387
7 *1646:B 0
8 *1755:A1 2.34823e-05
9 *1756:A 0
10 *1977:A 0
11 *1994:Q 4.64243e-05
12 *447:119 0.000113737
13 *447:113 0.000583994
14 *447:80 0.000382631
15 *447:69 0.000510464
16 *447:51 0.000421395
17 *447:43 0.000930165
18 *447:37 0.000950678
19 *447:35 0.000671466
20 *447:33 0.000785866
21 *447:31 0.000512143
22 *447:22 0.000324808
23 *447:16 0.00126877
24 *447:8 0.000602253
25 *1648:B1 *1648:A2 1.24376e-05
26 *1648:B1 *455:34 5.3304e-05
27 *1648:B1 *455:49 4.2573e-05
28 *1653:B *455:49 5.58003e-05
29 *1666:A2 *1666:A1 8.23813e-05
30 *1732:A1_N *1732:A2_N 0.000217257
31 *447:8 *448:14 8.78864e-05
32 *447:22 *449:19 0
33 *447:22 *450:10 0
34 *447:31 *450:10 0.000323904
35 *447:35 *455:34 2.55642e-05
36 *447:35 *519:51 0.000822869
37 *447:37 *455:10 0.000160191
38 *447:37 *455:34 0.000162422
39 *447:37 *519:38 9.35072e-05
40 *447:37 *519:51 0.000133316
41 *447:43 *1731:A1 0.00031495
42 *447:43 *519:38 0.000108682
43 *447:51 *466:12 7.03869e-05
44 *447:51 *479:10 4.04598e-06
45 *447:69 *455:10 0.000224605
46 *447:69 *465:61 9.9236e-05
47 *447:80 *1649:B 8.72173e-05
48 *447:80 *1732:A2_N 2.55642e-05
49 *447:80 *465:63 0.000161121
50 *447:113 *1666:A1 0.000269781
51 *447:113 *480:12 0
52 *447:113 *519:51 3.46013e-05
53 *447:113 *519:84 5.50106e-05
54 *447:113 *519:91 0.000226295
55 *447:119 *455:68 0.000192087
56 *1731:B1 *447:43 2.18506e-05
57 *1732:B1 *1732:A1_N 0.000129822
58 *1732:B1 *447:80 1.83564e-05
59 *1734:B *1732:A1_N 0
60 *1737:A *1648:B1 7.43025e-06
61 *1997:CLK *447:16 3.46302e-05
62 *1997:D *447:16 8.16097e-05
63 *26:7 *447:43 0.000166532
64 *78:8 *447:8 2.14404e-05
65 *124:10 *447:37 0
66 *124:10 *447:43 0
67 *124:53 *447:69 0.000272383
68 *124:53 *447:80 4.21281e-05
69 *132:6 *1666:A2 1.66122e-05
70 *145:8 *447:119 0
71 *208:10 *447:80 0.000111792
72 *215:6 *1648:B1 0.000137651
73 *229:20 *447:35 0
74 *383:10 *447:35 5.74915e-05
75 *383:10 *447:113 2.78698e-05
76 *446:38 *1653:B 3.44001e-05
77 *446:38 *447:31 0.000320089
*RES
1 *1994:Q *447:8 39.2014 
2 *447:8 *447:16 22.4571 
3 *447:16 *447:22 36.1314 
4 *447:22 *1977:A 23 
5 *447:16 *447:31 9.21786 
6 *447:31 *447:33 15 
7 *447:33 *447:35 11.0614 
8 *447:35 *447:37 4.72286 
9 *447:37 *447:43 24.7771 
10 *447:43 *447:51 37.2914 
11 *447:51 *1756:A 23 
12 *447:43 *1755:A1 23.4971 
13 *447:37 *447:69 21.3593 
14 *447:69 *1646:B 23 
15 *447:69 *447:80 19.7643 
16 *447:80 *1732:A1_N 41.9461 
17 *447:80 *1733:C 38 
18 *447:35 *1648:B1 39.5743 
19 *447:33 *447:113 22.4157 
20 *447:113 *447:119 32.61 
21 *447:119 *1654:B 23 
22 *447:113 *1666:A2 25.118 
23 *447:31 *1653:B 24.5743 
*END

*D_NET *448 0.00808868
*CONN
*I *2047:A I *D sky130_fd_sc_hd__dlygate4sd3_1
*I *1856:B2 I *D sky130_fd_sc_hd__a22o_2
*I *1753:A I *D sky130_fd_sc_hd__nand2_2
*I *1648:A1 I *D sky130_fd_sc_hd__a22o_2
*I *1645:A I *D sky130_fd_sc_hd__and2_4
*I *1995:Q O *D sky130_fd_sc_hd__dfxtp_2
*CAP
1 *2047:A 0.000206232
2 *1856:B2 0
3 *1753:A 0
4 *1648:A1 0
5 *1645:A 2.0995e-05
6 *1995:Q 0.000280207
7 *448:49 0.000166617
8 *448:34 0.000628366
9 *448:28 0.00087755
10 *448:14 0.00141399
11 *448:8 0.00146364
12 *1645:A *1729:A 1.14154e-05
13 *2047:A *494:45 0.000141954
14 *2047:A *529:8 0
15 *448:14 *1976:B 0
16 *448:14 *529:8 0
17 *448:28 *1856:A2 7.52205e-05
18 *448:28 *1856:B1 5.94453e-05
19 *448:28 *465:39 7.37706e-05
20 *448:34 *1729:A 0.00044107
21 *448:34 *1729:B 2.25927e-05
22 *448:34 *1730:B 0.000564583
23 *448:34 *465:24 0.000178517
24 *448:49 *1648:A2 0.000133316
25 *448:49 *1730:B 0.00012692
26 *448:49 *480:12 0.000215801
27 *448:49 *519:38 3.83059e-05
28 *1757:B *448:34 2.32101e-05
29 *1994:CLK *448:14 0
30 *2017:A *448:8 3.52383e-05
31 *59:10 *448:14 4.41821e-06
32 *207:10 *448:34 0.000137651
33 *230:23 *448:34 1.03836e-05
34 *233:8 *448:34 6.16531e-05
35 *233:23 *448:28 9.30478e-05
36 *234:22 *448:34 1.46594e-05
37 *234:22 *448:49 9.62764e-05
38 *332:10 *448:28 1.9899e-05
39 *333:14 *448:28 0.000163272
40 *422:14 *2047:A 8.52481e-05
41 *422:24 *2047:A 5.67058e-05
42 *422:24 *448:14 0
43 *422:26 *448:14 0
44 *422:28 *448:14 0
45 *446:14 *448:14 5.86165e-05
46 *447:8 *448:14 8.78864e-05
*RES
1 *1995:Q *448:8 42.4329 
2 *448:8 *448:14 32.9179 
3 *448:14 *448:28 25.3157 
4 *448:28 *448:34 26.4757 
5 *448:34 *1645:A 23.4971 
6 *448:34 *448:49 35.0129 
7 *448:49 *1648:A1 23 
8 *448:28 *1753:A 38 
9 *448:14 *1856:B2 23 
10 *448:8 *2047:A 42.8886 
*END

*D_NET *449 0.0104237
*CONN
*I *1857:A I *D sky130_fd_sc_hd__nand2_2
*I *1871:A I *D sky130_fd_sc_hd__and3_2
*I *1729:B I *D sky130_fd_sc_hd__nand2_2
*I *1730:B I *D sky130_fd_sc_hd__and3_2
*I *1752:B I *D sky130_fd_sc_hd__and3_2
*I *1731:A2 I *D sky130_fd_sc_hd__a21oi_2
*I *1856:A2 I *D sky130_fd_sc_hd__a22o_2
*I *2031:A I *D sky130_fd_sc_hd__dlygate4sd3_1
*I *1996:Q O *D sky130_fd_sc_hd__dfxtp_2
*CAP
1 *1857:A 8.32941e-05
2 *1871:A 0
3 *1729:B 7.05533e-05
4 *1730:B 0.000514209
5 *1752:B 6.17201e-05
6 *1731:A2 0
7 *1856:A2 5.73742e-05
8 *2031:A 0
9 *1996:Q 0.000384913
10 *449:62 8.67446e-05
11 *449:56 0.000306095
12 *449:50 0.000723478
13 *449:48 0.000378715
14 *449:40 0.000449818
15 *449:23 0.000413266
16 *449:19 0.00102282
17 *449:8 0.00116184
18 *1729:B *1729:A 4.07902e-05
19 *1752:B *465:48 4.08664e-05
20 *1856:A2 *1856:B1 3.30283e-05
21 *1856:A2 *466:52 0.000127744
22 *449:8 *462:10 9.84794e-05
23 *449:19 *1977:B 0.00026808
24 *449:19 *463:8 0.000566348
25 *449:23 *466:52 5.71002e-06
26 *449:23 *466:67 8.52094e-06
27 *449:40 *466:52 0.000288077
28 *449:48 *466:38 0.000108681
29 *449:48 *466:42 5.41288e-05
30 *449:48 *466:52 7.44161e-06
31 *449:50 *466:38 0.000111852
32 *449:56 *465:24 0.000139352
33 *449:56 *465:48 5.3304e-05
34 *449:56 *466:38 0.000111852
35 *449:62 *465:10 0.000222113
36 *449:62 *466:38 6.7177e-06
37 *1731:B1 *449:62 0.000168754
38 *1858:A1 *449:40 9.84851e-05
39 *1858:A1 *449:48 5.25017e-05
40 *1908:A1 *449:40 0
41 *1908:B1 *1857:A 1.24376e-05
42 *80:12 *449:19 0
43 *124:10 *449:62 7.79942e-05
44 *207:10 *1729:B 6.17437e-06
45 *230:23 *449:48 3.04021e-05
46 *230:23 *449:50 2.76611e-06
47 *232:8 *449:50 7.70737e-05
48 *232:8 *449:56 0.000116314
49 *233:23 *449:40 0.000302164
50 *234:22 *1729:B 0.000176789
51 *332:10 *1856:A2 2.43944e-05
52 *333:14 *1857:A 5.3304e-05
53 *333:14 *449:23 0.000163102
54 *333:14 *449:40 4.16051e-06
55 *422:65 *449:8 0.000128391
56 *422:67 *449:8 0.000131304
57 *447:22 *449:19 0
58 *448:28 *1856:A2 7.52205e-05
59 *448:34 *1729:B 2.25927e-05
60 *448:34 *1730:B 0.000564583
61 *448:49 *1730:B 0.00012692
*RES
1 *1996:Q *449:8 31.265 
2 *449:8 *2031:A 23 
3 *449:8 *449:19 31.7993 
4 *449:19 *449:23 17.9621 
5 *449:23 *1856:A2 24.7814 
6 *449:23 *449:40 35.8621 
7 *449:40 *449:48 19.5779 
8 *449:48 *449:50 1.55357 
9 *449:50 *449:56 18.6043 
10 *449:56 *449:62 33.3143 
11 *449:62 *1731:A2 23 
12 *449:56 *1752:B 24.1186 
13 *449:50 *1730:B 45.7679 
14 *449:48 *1729:B 40.0714 
15 *449:40 *1871:A 23 
16 *449:19 *1857:A 39.595 
*END

*D_NET *450 0.0067182
*CONN
*I *1720:A I *D sky130_fd_sc_hd__and2_2
*I *1634:A I *D sky130_fd_sc_hd__nand2_2
*I *1663:B2 I *D sky130_fd_sc_hd__a22oi_2
*I *1639:D I *D sky130_fd_sc_hd__and4_2
*I *1638:B I *D sky130_fd_sc_hd__nand2_2
*I *1679:A2 I *D sky130_fd_sc_hd__a31oi_2
*I *1997:Q O *D sky130_fd_sc_hd__dfxtp_2
*CAP
1 *1720:A 0.000236869
2 *1634:A 4.69174e-05
3 *1663:B2 0
4 *1639:D 0
5 *1638:B 2.95011e-05
6 *1679:A2 0
7 *1997:Q 0.00056044
8 *450:64 0.000694724
9 *450:51 0.000570442
10 *450:38 0.000448328
11 *450:19 0.000529425
12 *450:10 0.00077154
13 *1634:A *469:8 2.4754e-05
14 *1638:B *1638:A 5.50106e-05
15 *1720:A *1720:B 1.19692e-05
16 *1720:A *1807:A1 0
17 *1720:A *467:86 0
18 *450:10 *519:84 1.37349e-05
19 *450:19 *467:42 0.000141248
20 *450:38 *1639:B 0.000103647
21 *450:38 *1639:C 2.02872e-05
22 *450:38 *451:10 0.000166522
23 *450:38 *467:42 9.48381e-06
24 *450:51 *1639:C 0.00012189
25 *450:51 *467:49 6.7177e-06
26 *450:51 *468:80 6.07611e-06
27 *450:64 *467:60 3.95159e-06
28 *450:64 *467:86 0
29 *450:64 *468:80 7.55491e-05
30 *1679:A3 *450:19 0
31 *110:14 *450:64 0
32 *111:10 *450:64 0.000163352
33 *111:26 *1720:A 0
34 *112:10 *450:64 0.000214396
35 *113:10 *1634:A 5.50049e-05
36 *113:10 *450:64 0.000100615
37 *117:8 *450:19 8.76088e-05
38 *118:8 *450:51 5.67058e-05
39 *141:14 *450:38 0.000268074
40 *141:14 *450:51 4.04303e-05
41 *142:8 *450:51 0.000166532
42 *142:8 *450:64 3.92407e-05
43 *155:12 *450:19 0
44 *155:12 *450:38 0
45 *188:10 *1720:A 0.000224605
46 *189:8 *1720:A 4.94192e-05
47 *189:16 *1720:A 5.41288e-05
48 *383:10 *450:10 0
49 *383:10 *450:19 0
50 *383:10 *450:38 0
51 *383:12 *1720:A 0
52 *383:12 *450:38 0
53 *446:38 *450:10 0.000225156
54 *447:22 *450:10 0
55 *447:31 *450:10 0.000323904
*RES
1 *1997:Q *450:10 47.9636 
2 *450:10 *1679:A2 38 
3 *450:10 *450:19 5.77929 
4 *450:19 *1638:B 38.6214 
5 *450:19 *450:38 22.0843 
6 *450:38 *1639:D 23 
7 *450:38 *450:51 19.3293 
8 *450:51 *1663:B2 38 
9 *450:51 *450:64 9.715 
10 *450:64 *1634:A 39.0979 
11 *450:64 *1720:A 43.4893 
*END

*D_NET *451 0.00720259
*CONN
*I *1801:A1 I *D sky130_fd_sc_hd__a21oi_2
*I *1717:A I *D sky130_fd_sc_hd__and3_2
*I *1802:A I *D sky130_fd_sc_hd__and3_2
*I *1716:A I *D sky130_fd_sc_hd__nand2_2
*I *1631:C I *D sky130_fd_sc_hd__and4_2
*I *1633:B1 I *D sky130_fd_sc_hd__a22o_2
*I *1663:A2 I *D sky130_fd_sc_hd__a22oi_2
*I *1639:B I *D sky130_fd_sc_hd__and4_2
*I *1998:Q O *D sky130_fd_sc_hd__dfxtp_2
*CAP
1 *1801:A1 0.000146266
2 *1717:A 8.31438e-05
3 *1802:A 8.54787e-05
4 *1716:A 3.81931e-05
5 *1631:C 0
6 *1633:B1 0
7 *1663:A2 2.44422e-05
8 *1639:B 0.000168454
9 *1998:Q 0.000323051
10 *451:73 0.000168622
11 *451:71 0.000250879
12 *451:60 0.000581221
13 *451:45 0.000534842
14 *451:32 0.000295401
15 *451:21 0.000349016
16 *451:10 0.000617106
17 *1716:A *469:22 1.32314e-05
18 *1716:A *469:82 2.02872e-05
19 *1801:A1 *469:32 4.99753e-06
20 *451:10 *1638:A 2.93747e-05
21 *451:10 *453:10 5.91383e-05
22 *451:21 *453:10 6.32688e-05
23 *451:32 *452:10 9.28842e-05
24 *451:32 *453:10 0.000130045
25 *451:45 *452:10 2.08324e-05
26 *451:45 *452:23 4.85126e-05
27 *451:45 *452:36 0
28 *451:45 *453:10 6.67764e-05
29 *451:60 *1631:B 0.000141052
30 *451:60 *1713:A 4.04908e-05
31 *451:60 *452:23 1.83667e-05
32 *451:60 *452:32 0.000109743
33 *451:60 *467:99 0.000138718
34 *451:60 *469:16 0.000563587
35 *451:60 *469:32 2.76611e-06
36 *451:71 *469:32 8.83341e-05
37 *1802:C *1801:A1 0.00014411
38 *1803:A *1801:A1 1.24376e-05
39 *108:27 *1663:A2 5.41385e-05
40 *109:14 *1663:A2 9.84851e-05
41 *110:6 *451:60 6.17437e-06
42 *141:14 *1639:B 1.21972e-05
43 *155:12 *451:10 0
44 *191:10 *451:60 2.69411e-05
45 *191:23 *1717:A 0.000113302
46 *191:23 *1802:A 7.59794e-05
47 *191:23 *451:60 5.95199e-05
48 *192:8 *451:60 0.000171906
49 *275:10 *1801:A1 4.57742e-05
50 *279:10 *1717:A 0.000182832
51 *383:12 *1801:A1 0.000167452
52 *383:12 *451:10 0
53 *383:12 *451:32 0
54 *383:12 *451:60 0.000170329
55 *383:12 *451:71 0.000272321
56 *450:38 *1639:B 0.000103647
57 *450:38 *451:10 0.000166522
*RES
1 *1998:Q *451:10 43.0129 
2 *451:10 *1639:B 40.5271 
3 *451:10 *451:21 1.90571 
4 *451:21 *1663:A2 39.0979 
5 *451:21 *451:32 3.66643 
6 *451:32 *1633:B1 38 
7 *451:32 *451:45 17.5271 
8 *451:45 *1631:C 23 
9 *451:45 *451:60 29.1064 
10 *451:60 *1716:A 38.6214 
11 *451:60 *451:71 3.66643 
12 *451:71 *451:73 15 
13 *451:73 *1802:A 24.5743 
14 *451:73 *1717:A 25.5271 
15 *451:71 *1801:A1 41.8321 
*END

*D_NET *452 0.00771718
*CONN
*I *1713:A I *D sky130_fd_sc_hd__and4_2
*I *1799:A I *D sky130_fd_sc_hd__nand2_2
*I *1846:B2 I *D sky130_fd_sc_hd__a22o_2
*I *1798:A I *D sky130_fd_sc_hd__and4_2
*I *1714:A1 I *D sky130_fd_sc_hd__a22oi_2
*I *1631:D I *D sky130_fd_sc_hd__and4_2
*I *1633:A1 I *D sky130_fd_sc_hd__a22o_2
*I *1999:Q O *D sky130_fd_sc_hd__dfxtp_2
*CAP
1 *1713:A 0.00020026
2 *1799:A 4.38406e-05
3 *1846:B2 0.000221634
4 *1798:A 0.000114333
5 *1714:A1 7.60253e-05
6 *1631:D 0
7 *1633:A1 7.56353e-05
8 *1999:Q 0.000406749
9 *452:62 0.00037985
10 *452:51 0.000539524
11 *452:36 0.000561143
12 *452:32 0.000477769
13 *452:23 0.000198948
14 *452:10 0.000578124
15 *1633:A1 *468:14 5.26733e-06
16 *1713:A *1713:B 0.000262858
17 *1713:A *1713:C 5.50106e-05
18 *1714:A1 *1714:B1 1.11572e-05
19 *1714:A1 *453:38 1.03876e-05
20 *1799:A *453:73 0.000131735
21 *1846:B2 *1846:A1 4.00259e-06
22 *1846:B2 *1846:B1 0.000137651
23 *1846:B2 *470:24 0
24 *452:23 *453:10 0
25 *452:32 *453:10 0
26 *452:36 *453:10 2.21344e-05
27 *452:36 *453:21 0.000160182
28 *452:36 *453:38 4.27794e-05
29 *452:51 *453:38 0.000388265
30 *452:51 *469:32 7.90464e-05
31 *452:51 *469:42 0.000111852
32 *452:62 *453:62 1.99391e-05
33 *452:62 *453:73 5.94125e-05
34 *452:62 *469:42 0.000128583
35 *1802:C *452:51 0
36 *108:27 *452:10 0.000355822
37 *188:6 *1714:A1 0
38 *188:10 *1714:A1 5.50106e-05
39 *189:8 *1714:A1 1.57571e-05
40 *190:10 *1798:A 0.000180212
41 *190:10 *452:51 1.58805e-05
42 *190:10 *452:62 6.08032e-05
43 *191:10 *1713:A 8.80821e-05
44 *191:10 *452:36 0.000212621
45 *191:10 *452:51 0.000224345
46 *191:23 *452:51 0.000404307
47 *273:8 *1846:B2 1.02949e-05
48 *322:8 *1799:A 0.000141879
49 *322:8 *452:62 0.000117235
50 *383:12 *452:10 0
51 *451:32 *452:10 9.28842e-05
52 *451:45 *452:10 2.08324e-05
53 *451:45 *452:23 4.85126e-05
54 *451:45 *452:36 0
55 *451:60 *1713:A 4.04908e-05
56 *451:60 *452:23 1.83667e-05
57 *451:60 *452:32 0.000109743
*RES
1 *1999:Q *452:10 44.9186 
2 *452:10 *1633:A1 39.1186 
3 *452:10 *452:23 1.90571 
4 *452:23 *1631:D 38 
5 *452:23 *452:32 2.78607 
6 *452:32 *452:36 4.58821 
7 *452:36 *1714:A1 39.74 
8 *452:36 *452:51 11.7657 
9 *452:51 *1798:A 40.0507 
10 *452:51 *452:62 3.31429 
11 *452:62 *1846:B2 41.3764 
12 *452:62 *1799:A 39.9057 
13 *452:32 *1713:A 42.9818 
*END

*D_NET *453 0.0078234
*CONN
*I *1847:A I *D sky130_fd_sc_hd__nand2_2
*I *1895:A I *D sky130_fd_sc_hd__and3_2
*I *1846:A2 I *D sky130_fd_sc_hd__a22o_2
*I *1798:D I *D sky130_fd_sc_hd__and4_2
*I *1712:B I *D sky130_fd_sc_hd__nand2_2
*I *1714:B1 I *D sky130_fd_sc_hd__a22oi_2
*I *1713:D I *D sky130_fd_sc_hd__and4_2
*I *2000:Q O *D sky130_fd_sc_hd__dfxtp_2
*CAP
1 *1847:A 0.000215662
2 *1895:A 4.49845e-05
3 *1846:A2 4.75424e-06
4 *1798:D 4.97319e-05
5 *1712:B 0.000163261
6 *1714:B1 5.25152e-05
7 *1713:D 0
8 *2000:Q 0.000135926
9 *453:73 0.000474493
10 *453:62 0.000436809
11 *453:40 0.000212993
12 *453:38 0.000606254
13 *453:21 0.000575576
14 *453:10 0.000628234
15 *453:8 0.000629144
16 *1712:B *1712:A 9.84794e-05
17 *1712:B *1798:B 9.67842e-05
18 *1798:D *469:32 2.64616e-05
19 *1846:A2 *1846:B1 1.46586e-05
20 *1846:A2 *469:42 1.32314e-05
21 *1847:A *1847:B 6.09235e-05
22 *453:10 *468:20 0.000126936
23 *453:10 *468:31 9.74235e-05
24 *453:10 *468:42 4.6318e-06
25 *453:21 *468:42 4.28019e-05
26 *453:38 *1712:A 2.71291e-05
27 *453:38 *468:42 1.43577e-05
28 *453:38 *468:51 0.000414761
29 *453:38 *469:42 5.94125e-05
30 *453:62 *469:42 0.000187996
31 *453:62 *469:50 3.70187e-05
32 *453:73 *469:50 8.92738e-05
33 *1714:A1 *1714:B1 1.11572e-05
34 *1714:A1 *453:38 1.03876e-05
35 *1799:A *453:73 0.000131735
36 *1848:A1 *1847:A 5.50049e-05
37 *108:16 *453:10 0
38 *141:14 *453:8 0.000196027
39 *155:8 *453:8 0.000359326
40 *188:10 *1714:B1 1.21972e-05
41 *189:8 *1714:B1 5.3304e-05
42 *190:10 *1712:B 3.88766e-05
43 *190:10 *1798:D 9.41704e-05
44 *273:8 *1846:A2 6.62892e-07
45 *322:8 *1847:A 6.7911e-05
46 *322:8 *453:73 0.000138082
47 *451:10 *453:10 5.91383e-05
48 *451:21 *453:10 6.32688e-05
49 *451:32 *453:10 0.000130045
50 *451:45 *453:10 6.67764e-05
51 *452:23 *453:10 0
52 *452:32 *453:10 0
53 *452:36 *453:10 2.21344e-05
54 *452:36 *453:21 0.000160182
55 *452:36 *453:38 4.27794e-05
56 *452:51 *453:38 0.000388265
57 *452:62 *453:62 1.99391e-05
58 *452:62 *453:73 5.94125e-05
*RES
1 *2000:Q *453:8 43.3857 
2 *453:8 *453:10 12.1179 
3 *453:10 *1713:D 38 
4 *453:10 *453:21 2.87929 
5 *453:21 *1714:B1 39.1186 
6 *453:21 *453:38 12.5321 
7 *453:38 *453:40 15 
8 *453:40 *1712:B 26.9979 
9 *453:40 *1798:D 24.0979 
10 *453:38 *453:62 3.93571 
11 *453:62 *1846:A2 38.1709 
12 *453:62 *453:73 6.13143 
13 *453:73 *1895:A 38.6214 
14 *453:73 *1847:A 42.4536 
*END

*D_NET *454 0.00693988
*CONN
*I *1613:A2 I *D sky130_fd_sc_hd__a22oi_2
*I *1612:A I *D sky130_fd_sc_hd__nand4_2
*I *1675:B1 I *D sky130_fd_sc_hd__a22oi_2
*I *1627:C I *D sky130_fd_sc_hd__and4_2
*I *1623:A1 I *D sky130_fd_sc_hd__a22o_2
*I *1684:B I *D sky130_fd_sc_hd__nand4_4
*I *1614:B I *D sky130_fd_sc_hd__and4_2
*I *1685:B2 I *D sky130_fd_sc_hd__a22o_4
*I *2048:X O *D sky130_fd_sc_hd__buf_6
*CAP
1 *1613:A2 0
2 *1612:A 0.000174098
3 *1675:B1 0
4 *1627:C 0
5 *1623:A1 0
6 *1684:B 7.51353e-05
7 *1614:B 0.000265081
8 *1685:B2 0
9 *2048:X 6.37462e-05
10 *454:73 0.000223175
11 *454:56 0.000348503
12 *454:49 0.000218339
13 *454:43 0.000887633
14 *454:39 0.000701654
15 *454:19 0.000398993
16 *454:10 0.000243365
17 *454:6 0.000329465
18 *1614:B *1614:D 0.000141052
19 *1684:B *1685:A2 0.000141879
20 *454:10 *1685:A2 1.14452e-05
21 *454:19 *1685:A2 8.94394e-05
22 *454:43 *1613:B2 5.67058e-05
23 *454:43 *513:23 0.000229217
24 *454:43 *513:36 5.3304e-05
25 *454:49 *513:36 0.000138718
26 *454:56 *492:53 0.000184424
27 *454:73 *1622:A1 5.79427e-05
28 *454:73 *1627:A 0.000109745
29 *454:73 *1675:A1 0.000191148
30 *454:73 *497:81 5.3304e-05
31 *1610:D *454:73 1.74874e-06
32 *1612:B *1612:A 1.83408e-05
33 *1612:B *454:43 1.21972e-05
34 *1612:D *454:43 0.000144501
35 *1623:A2 *454:56 6.03708e-05
36 *1627:B *454:56 5.50106e-05
37 *1627:B *454:73 0.000216571
38 *1685:B1 *1614:B 1.03955e-05
39 *91:10 *1612:A 5.68958e-05
40 *154:8 *454:73 9.53602e-05
41 *438:46 *454:56 0.000318946
42 *438:124 *454:56 0.000180224
43 *438:124 *454:73 4.34745e-05
44 *439:34 *454:43 2.9938e-05
45 *439:40 *454:43 1.94812e-05
46 *440:25 *454:43 5.50106e-05
47 *440:38 *454:10 0
48 *440:38 *454:43 7.27085e-05
49 *440:53 *1614:B 2.18409e-05
50 *440:53 *454:10 0
51 *440:66 *1614:B 0.000139352
52 *440:66 *1684:B 0
53 *440:66 *454:19 0
54 *440:75 *1684:B 0
55 *441:19 *454:10 0
56 *442:32 *454:73 0
*RES
1 *2048:X *454:6 24.0979 
2 *454:6 *454:10 17.9621 
3 *454:10 *1685:B2 38 
4 *454:10 *454:19 1.20143 
5 *454:19 *1614:B 41.9564 
6 *454:19 *1684:B 39.9057 
7 *454:6 *454:39 1.57429 
8 *454:39 *454:43 12.5529 
9 *454:43 *454:49 31.9057 
10 *454:49 *1623:A1 23 
11 *454:49 *454:56 5.38571 
12 *454:56 *1627:C 23 
13 *454:56 *454:73 37.4364 
14 *454:73 *1675:B1 23 
15 *454:43 *1612:A 26.0243 
16 *454:39 *1613:A2 23 
*END

*D_NET *455 0.00662486
*CONN
*I *1666:B1 I *D sky130_fd_sc_hd__a22o_2
*I *1654:C I *D sky130_fd_sc_hd__nand4_2
*I *1653:C I *D sky130_fd_sc_hd__and4_2
*I *1648:B2 I *D sky130_fd_sc_hd__a22o_2
*I *1645:B I *D sky130_fd_sc_hd__and2_4
*I *1729:A I *D sky130_fd_sc_hd__nand2_2
*I *2049:X O *D sky130_fd_sc_hd__dlymetal6s4s_1
*CAP
1 *1666:B1 1.20384e-05
2 *1654:C 0
3 *1653:C 2.02868e-05
4 *1648:B2 0
5 *1645:B 0
6 *1729:A 0.000138346
7 *2049:X 0.000357604
8 *455:68 0.000222699
9 *455:60 0.000330173
10 *455:49 0.000494017
11 *455:34 0.000560633
12 *455:12 0.000138346
13 *455:10 0.000539943
14 *1666:B1 *1666:A1 5.58003e-05
15 *455:10 *465:61 8.06804e-06
16 *455:49 *1648:A2 3.70187e-05
17 *455:49 *480:12 0.000160768
18 *455:49 *519:51 0.000824882
19 *455:60 *1666:A1 2.2957e-05
20 *455:68 *1654:A 5.50049e-05
21 *455:68 *480:12 0
22 *455:68 *519:95 0
23 *1645:A *1729:A 1.14154e-05
24 *1648:B1 *455:34 5.3304e-05
25 *1648:B1 *455:49 4.2573e-05
26 *1653:B *455:49 5.58003e-05
27 *1666:B2 *455:60 0.000222104
28 *1729:B *1729:A 4.07902e-05
29 *1737:A *455:34 2.81066e-05
30 *1737:A *455:49 1.59094e-05
31 *124:10 *455:10 0
32 *132:6 *1666:B1 2.50118e-05
33 *132:6 *455:60 0.000192342
34 *215:6 *455:34 2.02872e-05
35 *229:20 *455:34 0
36 *234:22 *1729:A 0.000302441
37 *347:10 *455:49 0.000220674
38 *446:38 *455:49 0.000100486
39 *446:38 *455:60 5.5792e-05
40 *446:85 *455:60 5.3304e-05
41 *447:35 *455:34 2.55642e-05
42 *447:37 *455:10 0.000160191
43 *447:37 *455:34 0.000162422
44 *447:69 *455:10 0.000224605
45 *447:119 *455:68 0.000192087
46 *448:34 *1729:A 0.00044107
*RES
1 *2049:X *455:10 43.2614 
2 *455:10 *455:12 15 
3 *455:12 *1729:A 28.9036 
4 *455:12 *1645:B 23 
5 *455:10 *455:34 18.7079 
6 *455:34 *1648:B2 23 
7 *455:34 *455:49 42.7807 
8 *455:49 *1653:C 23.4971 
9 *455:49 *455:60 3.97714 
10 *455:60 *455:68 33.9357 
11 *455:68 *1654:C 23 
12 *455:60 *1666:B1 23.6214 
*END

*D_NET *456 0.00104313
*CONN
*I *1959:A1 I *D sky130_fd_sc_hd__mux2_1
*I *2025:X O *D sky130_fd_sc_hd__dlygate4sd3_1
*CAP
1 *1959:A1 6.04165e-05
2 *2025:X 0.000172411
3 *456:8 0.000232827
4 *1959:A1 *1959:A0 9.66668e-05
5 *1959:A1 *458:14 5.45644e-05
6 *456:8 *458:24 6.437e-05
7 *456:8 *475:8 0.000351457
8 *3:26 *456:8 1.04213e-05
*RES
1 *2025:X *456:8 42.7229 
2 *456:8 *1959:A1 39.5743 
*END

*D_NET *457 0.0003525
*CONN
*I *1957:A1 I *D sky130_fd_sc_hd__mux2_1
*I *2026:X O *D sky130_fd_sc_hd__dlygate4sd3_1
*CAP
1 *1957:A1 0
2 *2026:X 0.000147188
3 *457:10 0.000147188
4 *457:10 *478:83 2.71504e-05
5 *3:34 *457:10 3.09731e-05
*RES
1 *2026:X *457:10 40.5271 
2 *457:10 *1957:A1 38 
*END

*D_NET *458 0.00332184
*CONN
*I *1961:A1 I *D sky130_fd_sc_hd__mux2_1
*I *2027:X O *D sky130_fd_sc_hd__dlygate4sd3_1
*CAP
1 *1961:A1 0
2 *2027:X 0.000873484
3 *458:24 0.000326205
4 *458:14 0.00119969
5 *458:14 *1957:A0 0.000113758
6 *458:14 *1959:S 0.000186032
7 *458:14 *2029:A 0.000180703
8 *458:14 *478:83 0.000187601
9 *458:24 *475:8 1.16455e-05
10 *1954:B *458:24 2.95526e-05
11 *1959:A1 *458:14 5.45644e-05
12 *2061:A *458:24 0
13 *3:26 *458:14 3.47928e-05
14 *3:26 *458:24 2.99277e-05
15 *3:34 *458:14 2.95175e-05
16 *65:10 *458:24 0
17 *456:8 *458:24 6.437e-05
*RES
1 *2027:X *458:14 36.34 
2 *458:14 *458:24 35.4893 
3 *458:24 *1961:A1 23 
*END

*D_NET *459 0.000475559
*CONN
*I *1972:A I *D sky130_fd_sc_hd__and2_2
*I *2028:X O *D sky130_fd_sc_hd__dlygate4sd3_1
*CAP
1 *1972:A 3.43963e-05
2 *2028:X 0.000122669
3 *459:8 0.000157065
4 *1972:A *1973:B 7.61229e-06
5 *1972:A *493:57 5.76359e-05
6 *1973:A *1972:A 9.61805e-05
7 *74:10 *459:8 0
*RES
1 *2028:X *459:8 39.5536 
2 *459:8 *1972:A 39.595 
*END

*D_NET *460 0.00238012
*CONN
*I *1963:A_N I *D sky130_fd_sc_hd__and3b_2
*I *2029:X O *D sky130_fd_sc_hd__dlygate4sd3_1
*CAP
1 *1963:A_N 0.00022258
2 *2029:X 0.000262595
3 *460:8 0.000485174
4 *1963:A_N *1963:B 3.93636e-05
5 *1963:A_N *1963:C 0.00043942
6 *460:8 *478:45 8.65125e-05
7 *460:8 *478:64 0.000247678
8 *1984:CLK *1963:A_N 0.000226306
9 *1984:D *1963:A_N 0.00010795
10 *2061:A *460:8 4.5745e-05
11 *62:12 *460:8 0.000165384
12 *65:10 *460:8 0
13 *67:8 *460:8 0
14 *409:28 *460:8 5.14087e-05
*RES
1 *2029:X *460:8 44.4836 
2 *460:8 *1963:A_N 44.815 
*END

*D_NET *461 0.000179095
*CONN
*I *1975:A I *D sky130_fd_sc_hd__and2_2
*I *2030:X O *D sky130_fd_sc_hd__dlygate4sd3_1
*CAP
1 *1975:A 6.0377e-05
2 *2030:X 6.0377e-05
3 *444:8 *1975:A 5.83407e-05
*RES
1 *2030:X *1975:A 47.5743 
*END

*D_NET *462 0.000875885
*CONN
*I *1979:A I *D sky130_fd_sc_hd__and2_2
*I *2031:X O *D sky130_fd_sc_hd__dlygate4sd3_1
*CAP
1 *1979:A 0
2 *2031:X 0.000322464
3 *462:10 0.000322464
4 *422:24 *462:10 0.000132477
5 *449:8 *462:10 9.84794e-05
*RES
1 *2031:X *462:10 43.8207 
2 *462:10 *1979:A 38 
*END

*D_NET *463 0.0012891
*CONN
*I *1976:A I *D sky130_fd_sc_hd__and2_2
*I *2032:X O *D sky130_fd_sc_hd__dlygate4sd3_1
*CAP
1 *1976:A 6.13065e-05
2 *2032:X 0.000286121
3 *463:8 0.000347427
4 *463:8 *1976:B 0
5 *463:8 *494:47 0
6 *80:12 *463:8 2.79004e-05
7 *449:19 *463:8 0.000566348
*RES
1 *2032:X *463:8 45.54 
2 *463:8 *1976:A 39.0979 
*END

*D_NET *464 0.000167848
*CONN
*I *1974:A I *D sky130_fd_sc_hd__and2_2
*I *2033:X O *D sky130_fd_sc_hd__dlygate4sd3_1
*CAP
1 *1974:A 3.38339e-05
2 *2033:X 3.38339e-05
3 *1974:A *494:23 0.00010018
*RES
1 *2033:X *1974:A 47.0979 
*END

*D_NET *465 0.00783583
*CONN
*I *1649:B I *D sky130_fd_sc_hd__nand2_2
*I *1733:D I *D sky130_fd_sc_hd__and4bb_2
*I *1732:A2_N I *D sky130_fd_sc_hd__o2bb2a_2
*I *1752:A I *D sky130_fd_sc_hd__and3_2
*I *1856:A1 I *D sky130_fd_sc_hd__a22o_2
*I *1753:B I *D sky130_fd_sc_hd__nand2_2
*I *2050:X O *D sky130_fd_sc_hd__clkdlybuf4s25_1
*CAP
1 *1649:B 0.000321674
2 *1733:D 5.02158e-05
3 *1732:A2_N 0.000323295
4 *1752:A 0
5 *1856:A1 0
6 *1753:B 0
7 *2050:X 0.000223135
8 *465:63 0.000478178
9 *465:61 0.000866027
10 *465:48 0.000591182
11 *465:39 0.000434188
12 *465:24 0.000827214
13 *465:12 0.000544523
14 *465:10 0.000223135
15 *1649:B *480:12 0
16 *1732:A2_N *480:12 0
17 *465:10 *466:23 7.03766e-05
18 *465:10 *466:38 0.000122397
19 *465:61 *519:31 0.000185434
20 *465:63 *519:31 0
21 y[0] *465:10 0
22 *1651:A1 *1649:B 0
23 *1731:B1 *465:10 1.47563e-05
24 *1732:A1_N *1732:A2_N 0.000217257
25 *1732:B1 *1732:A2_N 2.3191e-05
26 *1752:B *465:48 4.08664e-05
27 *1754:A1 *465:24 5.50049e-05
28 *1754:B1 *465:24 9.75779e-05
29 *1756:C *465:24 2.4754e-05
30 *1757:B *465:24 0.000137651
31 *2012:CLK *465:39 0
32 *26:7 *465:10 0
33 *124:53 *1649:B 0
34 *124:53 *465:61 0.000370857
35 *125:12 *1649:B 0
36 *128:10 *1649:B 5.15848e-05
37 *207:10 *465:24 9.39159e-05
38 *208:10 *1649:B 2.01531e-05
39 *209:21 *1732:A2_N 8.88402e-05
40 *211:8 *1733:D 9.5877e-05
41 *230:12 *465:24 0.000194309
42 *421:127 *465:39 0
43 *447:69 *465:61 9.9236e-05
44 *447:80 *1649:B 8.72173e-05
45 *447:80 *1732:A2_N 2.55642e-05
46 *447:80 *465:63 0.000161121
47 *448:28 *465:39 7.37706e-05
48 *448:34 *465:24 0.000178517
49 *449:56 *465:24 0.000139352
50 *449:56 *465:48 5.3304e-05
51 *449:62 *465:10 0.000222113
52 *455:10 *465:61 8.06804e-06
*RES
1 *2050:X *465:10 43.6964 
2 *465:10 *465:12 15 
3 *465:12 *465:24 39.5907 
4 *465:24 *1753:B 23 
5 *465:24 *465:39 37.975 
6 *465:39 *1856:A1 23 
7 *465:12 *465:48 2.9 
8 *465:48 *1752:A 23 
9 *465:48 *465:61 24.8393 
10 *465:61 *465:63 2.25786 
11 *465:63 *1732:A2_N 44.7114 
12 *465:63 *1733:D 39.0979 
13 *465:61 *1649:B 43.7793 
*END

*D_NET *466 0.00659236
*CONN
*I *1737:B I *D sky130_fd_sc_hd__and2_2
*I *1871:B I *D sky130_fd_sc_hd__and3_2
*I *1857:B I *D sky130_fd_sc_hd__nand2_2
*I *1856:B1 I *D sky130_fd_sc_hd__a22o_2
*I *1755:A2 I *D sky130_fd_sc_hd__a21oi_2
*I *1756:B I *D sky130_fd_sc_hd__and3_2
*I *2051:X O *D sky130_fd_sc_hd__clkdlybuf4s25_1
*CAP
1 *1737:B 0
2 *1871:B 5.56933e-05
3 *1857:B 0
4 *1856:B1 7.54161e-05
5 *1755:A2 0
6 *1756:B 0
7 *2051:X 0.000440272
8 *466:67 0.000109698
9 *466:52 0.000513172
10 *466:42 0.000500411
11 *466:38 0.00051184
12 *466:23 0.000873225
13 *466:12 0.000294306
14 *466:6 0.00121262
15 *1737:A *1871:B 1.24906e-05
16 *1737:A *466:42 5.08482e-05
17 *1856:A2 *1856:B1 3.30283e-05
18 *1856:A2 *466:52 0.000127744
19 *1858:A1 *466:38 0
20 *1858:A1 *466:42 1.14154e-05
21 *1858:A1 *466:52 7.88828e-05
22 *1908:A1 *466:38 0
23 *1908:A1 *466:52 1.05922e-05
24 *5:8 *466:6 8.91468e-07
25 *5:8 *466:23 7.18992e-06
26 *27:9 *466:23 5.47927e-05
27 *28:11 *466:6 4.05196e-05
28 *124:10 *466:38 0
29 *207:10 *466:12 0
30 *229:20 *466:38 0.000152635
31 *230:12 *466:12 0
32 *230:23 *466:38 0
33 *231:12 *466:12 0
34 *231:12 *466:38 0
35 *232:8 *466:12 0
36 *232:8 *466:38 9.27917e-05
37 *233:8 *466:12 6.07611e-06
38 *233:23 *466:52 2.02872e-05
39 *333:14 *466:67 5.511e-05
40 *334:10 *466:52 0.000220404
41 *335:8 *466:52 4.41821e-06
42 *447:51 *466:12 7.03869e-05
43 *448:28 *1856:B1 5.94453e-05
44 *449:23 *466:52 5.71002e-06
45 *449:23 *466:67 8.52094e-06
46 *449:40 *466:52 0.000288077
47 *449:48 *466:38 0.000108681
48 *449:48 *466:42 5.41288e-05
49 *449:48 *466:52 7.44161e-06
50 *449:50 *466:38 0.000111852
51 *449:56 *466:38 0.000111852
52 *449:62 *466:38 6.7177e-06
53 *465:10 *466:23 7.03766e-05
54 *465:10 *466:38 0.000122397
*RES
1 *2051:X *466:6 28.8621 
2 *466:6 *466:12 35.7793 
3 *466:12 *1756:B 23 
4 *466:6 *466:23 22.2914 
5 *466:23 *1755:A2 38 
6 *466:23 *466:38 24.8393 
7 *466:38 *466:42 3.37643 
8 *466:42 *466:52 38.0164 
9 *466:52 *1856:B1 24.5743 
10 *466:52 *466:67 32.4029 
11 *466:67 *1857:B 23 
12 *466:42 *1871:B 24.1186 
13 *466:38 *1737:B 23 
*END

*D_NET *467 0.0116012
*CONN
*I *1714:B2 I *D sky130_fd_sc_hd__a22oi_2
*I *1713:B I *D sky130_fd_sc_hd__and4_2
*I *1631:B I *D sky130_fd_sc_hd__and4_2
*I *1633:A2 I *D sky130_fd_sc_hd__a22o_2
*I *1663:A1 I *D sky130_fd_sc_hd__a22oi_2
*I *1679:A1 I *D sky130_fd_sc_hd__a31oi_2
*I *1638:A I *D sky130_fd_sc_hd__nand2_2
*I *1639:A I *D sky130_fd_sc_hd__and4_2
*I *2052:X O *D sky130_fd_sc_hd__clkbuf_2
*CAP
1 *1714:B2 0
2 *1713:B 0.00025669
3 *1631:B 0.000254952
4 *1633:A2 0.000110095
5 *1663:A1 2.77218e-05
6 *1679:A1 0
7 *1638:A 0.000132243
8 *1639:A 0.000175528
9 *2052:X 0.00113372
10 *467:99 6.50786e-05
11 *467:86 0.000704916
12 *467:71 0.000697225
13 *467:60 0.000269321
14 *467:49 0.000283136
15 *467:42 0.000167676
16 *467:27 0.000523864
17 *467:21 0.000379259
18 *467:10 0.000754494
19 *467:8 0.00171269
20 *1633:A2 *468:14 2.48694e-05
21 *467:49 *1639:C 0.000136486
22 *467:60 *1639:C 1.01436e-05
23 *467:60 *468:80 0.000154147
24 *467:86 *469:16 4.67488e-05
25 *1635:C_N *467:86 2.60152e-05
26 *1638:B *1638:A 5.50106e-05
27 *1660:A1 *467:8 0.000127821
28 *1660:A2 *467:8 3.53115e-05
29 *1665:B *467:10 1.56762e-05
30 *1713:A *1713:B 0.000262858
31 *1720:A *467:86 0
32 *108:27 *1663:A1 2.64616e-05
33 *109:14 *1663:A1 5.3304e-05
34 *110:6 *1631:B 4.39488e-05
35 *111:10 *467:86 3.39231e-05
36 *112:10 *1633:A2 7.4416e-05
37 *112:10 *467:60 3.0647e-05
38 *112:10 *467:71 6.79006e-05
39 *112:10 *467:86 3.3123e-05
40 *118:19 *467:8 2.30292e-05
41 *118:19 *467:10 7.44161e-06
42 *122:6 *467:8 0.000181919
43 *122:39 *467:8 8.1796e-05
44 *141:14 *1639:A 9.47033e-05
45 *141:14 *467:10 0.000190191
46 *143:6 *467:10 0.000123934
47 *144:10 *467:10 0.000185428
48 *191:10 *467:99 6.6869e-05
49 *383:10 *467:27 5.76445e-05
50 *383:10 *467:42 0.000225691
51 *383:12 *467:27 2.24608e-05
52 *383:12 *467:49 0.000255856
53 *383:12 *467:60 0.000231221
54 *383:12 *467:71 0.000129504
55 *383:12 *467:86 0.000345574
56 *450:19 *467:42 0.000141248
57 *450:38 *467:42 9.48381e-06
58 *450:51 *467:49 6.7177e-06
59 *450:64 *467:60 3.95159e-06
60 *450:64 *467:86 0
61 *451:10 *1638:A 2.93747e-05
62 *451:60 *1631:B 0.000141052
63 *451:60 *467:99 0.000138718
*RES
1 *2052:X *467:8 42.2229 
2 *467:8 *467:10 9.19714 
3 *467:10 *1639:A 25.5479 
4 *467:10 *467:21 15 
5 *467:21 *467:27 18.9564 
6 *467:27 *1638:A 25.5479 
7 *467:27 *467:42 35.7793 
8 *467:42 *1679:A1 23 
9 *467:21 *467:49 3.66643 
10 *467:49 *1663:A1 38.6214 
11 *467:49 *467:60 3.31429 
12 *467:60 *1633:A2 40.2579 
13 *467:60 *467:71 1.90571 
14 *467:71 *1631:B 41.48 
15 *467:71 *467:86 21.7736 
16 *467:86 *1713:B 26.48 
17 *467:86 *467:99 31.9057 
18 *467:99 *1714:B2 23 
*END

*D_NET *468 0.0111321
*CONN
*I *1663:B1 I *D sky130_fd_sc_hd__a22oi_2
*I *1639:C I *D sky130_fd_sc_hd__and4_2
*I *1633:B2 I *D sky130_fd_sc_hd__a22o_2
*I *1712:A I *D sky130_fd_sc_hd__nand2_2
*I *1798:B I *D sky130_fd_sc_hd__and4_2
*I *1714:A2 I *D sky130_fd_sc_hd__a22oi_2
*I *1713:C I *D sky130_fd_sc_hd__and4_2
*I *1631:A I *D sky130_fd_sc_hd__and4_2
*I *2053:X O *D sky130_fd_sc_hd__clkbuf_2
*CAP
1 *1663:B1 0
2 *1639:C 0.000158677
3 *1633:B2 0
4 *1712:A 8.15643e-05
5 *1798:B 7.68064e-05
6 *1714:A2 0
7 *1713:C 2.79004e-05
8 *1631:A 8.15719e-05
9 *2053:X 2.34823e-05
10 *468:80 0.000228972
11 *468:51 0.000582525
12 *468:42 0.000570634
13 *468:31 0.000289333
14 *468:20 0.000404729
15 *468:14 0.000629408
16 *468:8 0.00271546
17 *468:6 0.00224744
18 *468:6 *500:10 0
19 *468:8 *496:10 1.02949e-05
20 *468:8 *500:10 0.000863699
21 *1633:A1 *468:14 5.26733e-06
22 *1633:A2 *468:14 2.48694e-05
23 *1640:A *468:8 1.14762e-05
24 *1642:B *468:8 1.21972e-05
25 *1712:B *1712:A 9.84794e-05
26 *1712:B *1798:B 9.67842e-05
27 *1713:A *1713:C 5.50106e-05
28 *110:14 *468:8 4.06849e-05
29 *112:10 *468:8 5.50106e-05
30 *112:10 *468:14 0.000180212
31 *119:8 *468:8 9.91798e-05
32 *119:19 *468:8 9.86742e-05
33 *121:10 *468:8 5.41288e-05
34 *190:10 *1712:A 5.50049e-05
35 *450:38 *1639:C 2.02872e-05
36 *450:51 *1639:C 0.00012189
37 *450:51 *468:80 6.07611e-06
38 *450:64 *468:80 7.55491e-05
39 *453:10 *468:20 0.000126936
40 *453:10 *468:31 9.74235e-05
41 *453:10 *468:42 4.6318e-06
42 *453:21 *468:42 4.28019e-05
43 *453:38 *1712:A 2.71291e-05
44 *453:38 *468:42 1.43577e-05
45 *453:38 *468:51 0.000414761
46 *467:49 *1639:C 0.000136486
47 *467:60 *1639:C 1.01436e-05
48 *467:60 *468:80 0.000154147
*RES
1 *2053:X *468:6 23.4971 
2 *468:6 *468:8 31.5893 
3 *468:8 *468:14 6.25571 
4 *468:14 *468:20 19.4121 
5 *468:20 *1631:A 39.0979 
6 *468:20 *468:31 2.61 
7 *468:31 *1713:C 38.6214 
8 *468:31 *468:42 2.61 
9 *468:42 *1714:A2 38 
10 *468:42 *468:51 10.7093 
11 *468:51 *1798:B 39.0979 
12 *468:51 *1712:A 39.9471 
13 *468:14 *1633:B2 23 
14 *468:8 *468:80 17.2579 
15 *468:80 *1639:C 41.0036 
16 *468:80 *1663:B1 38 
*END

*D_NET *469 0.0100495
*CONN
*I *1634:B I *D sky130_fd_sc_hd__nand2_2
*I *1717:B I *D sky130_fd_sc_hd__and3_2
*I *1716:B I *D sky130_fd_sc_hd__nand2_2
*I *1798:C I *D sky130_fd_sc_hd__and4_2
*I *1846:A1 I *D sky130_fd_sc_hd__a22o_2
*I *1799:B I *D sky130_fd_sc_hd__nand2_2
*I *2054:X O *D sky130_fd_sc_hd__dlymetal6s4s_1
*CAP
1 *1634:B 0
2 *1717:B 0
3 *1716:B 0
4 *1798:C 0
5 *1846:A1 2.15203e-05
6 *1799:B 0
7 *2054:X 0
8 *469:82 0.000398435
9 *469:50 0.000166222
10 *469:42 0.000347053
11 *469:32 0.000504609
12 *469:22 0.000431954
13 *469:16 0.000742515
14 *469:8 0.00204438
15 *469:4 0.00178696
16 *469:42 *1846:B1 2.18506e-05
17 *469:50 *1846:B1 2.64616e-05
18 *469:82 *1720:B 7.06021e-05
19 *469:82 *470:39 2.76611e-06
20 *1634:A *469:8 2.4754e-05
21 *1716:A *469:22 1.32314e-05
22 *1716:A *469:82 2.02872e-05
23 *1722:B *469:8 2.79543e-05
24 *1724:C *469:8 5.12254e-05
25 *1727:A *469:8 2.93747e-05
26 *1727:B *469:8 6.87362e-05
27 *1798:D *469:32 2.64616e-05
28 *1801:A1 *469:32 4.99753e-06
29 *1802:C *469:32 4.08537e-05
30 *1846:A2 *469:42 1.32314e-05
31 *1846:B2 *1846:A1 4.00259e-06
32 *111:10 *469:8 0.00044107
33 *113:10 *469:8 0.000139352
34 *190:10 *469:32 2.98648e-05
35 *191:23 *469:32 0.000225265
36 *191:23 *469:82 2.64616e-05
37 *193:21 *469:82 0.000223034
38 *194:10 *469:82 5.3304e-05
39 *202:10 *469:8 1.73399e-05
40 *273:8 *469:42 2.02872e-05
41 *273:8 *469:50 2.93747e-05
42 *383:12 *469:16 0.000559124
43 *451:60 *469:16 0.000563587
44 *451:60 *469:32 2.76611e-06
45 *451:71 *469:32 8.83341e-05
46 *452:51 *469:32 7.90464e-05
47 *452:51 *469:42 0.000111852
48 *452:62 *469:42 0.000128583
49 *453:38 *469:42 5.94125e-05
50 *453:62 *469:42 0.000187996
51 *453:62 *469:50 3.70187e-05
52 *453:73 *469:50 8.92738e-05
53 *467:86 *469:16 4.67488e-05
*RES
1 *2054:X *469:4 23 
2 *469:4 *469:8 31.4857 
3 *469:8 *469:16 38.6379 
4 *469:16 *469:22 1.61571 
5 *469:22 *469:32 37.7471 
6 *469:32 *469:42 34.4329 
7 *469:42 *469:50 33.5836 
8 *469:50 *1799:B 23 
9 *469:42 *1846:A1 23.4971 
10 *469:32 *1798:C 23 
11 *469:22 *1716:B 23 
12 *469:16 *469:82 36.5871 
13 *469:82 *1717:B 23 
14 *469:8 *1634:B 23 
*END

*D_NET *470 0.00956615
*CONN
*I *1847:B I *D sky130_fd_sc_hd__nand2_2
*I *1895:B I *D sky130_fd_sc_hd__and3_2
*I *1801:A2 I *D sky130_fd_sc_hd__a21oi_2
*I *1802:B I *D sky130_fd_sc_hd__and3_2
*I *1720:B I *D sky130_fd_sc_hd__and2_2
*I *1846:B1 I *D sky130_fd_sc_hd__a22o_2
*I *2055:X O *D sky130_fd_sc_hd__clkdlybuf4s25_1
*CAP
1 *1847:B 0.000211119
2 *1895:B 0
3 *1801:A2 7.99118e-05
4 *1802:B 0.000157058
5 *1720:B 0.000320371
6 *1846:B1 0.000125703
7 *2055:X 0.000440873
8 *470:39 0.000666768
9 *470:37 0.000567672
10 *470:24 0.000546965
11 *470:16 0.000334951
12 *470:10 0.00104072
13 *470:8 0.00105836
14 *1720:A *1720:B 1.19692e-05
15 *1800:A1 *1846:B1 1.24376e-05
16 *1800:A1 *470:37 0.000126914
17 *1800:A2 *470:24 0.000114083
18 *1803:A *1801:A2 5.67058e-05
19 *1846:A2 *1846:B1 1.46586e-05
20 *1846:B2 *1846:B1 0.000137651
21 *1846:B2 *470:24 0
22 *1847:A *1847:B 6.09235e-05
23 *1848:A1 *1847:B 0.000142308
24 *1895:C *470:16 1.05235e-05
25 *1918:A1 *470:10 0.000185104
26 *1918:A1 *470:16 6.39874e-05
27 *1931:A *470:8 3.7122e-06
28 *1932:A_N *470:10 0.000280866
29 *1937:B1 *470:10 8.85189e-05
30 *32:9 *470:8 5.25848e-05
31 *191:23 *1802:B 9.4713e-05
32 *193:21 *1720:B 0
33 *193:21 *470:39 0
34 *194:10 *1720:B 0.000163352
35 *273:8 *1846:B1 2.65474e-05
36 *275:10 *1801:A2 3.7122e-06
37 *275:10 *470:37 0.000135557
38 *275:25 *470:37 5.33597e-05
39 *276:19 *470:16 0.000118174
40 *276:19 *470:24 0.000185095
41 *276:30 *470:16 0.000167349
42 *277:10 *470:37 4.39607e-05
43 *279:10 *470:39 0
44 *279:19 *470:37 0
45 *322:8 *470:24 0.000301419
46 *323:6 *1847:B 0.000143655
47 *324:6 *1847:B 1.59094e-05
48 *324:14 *470:16 0.000166513
49 *370:10 *470:16 8.91468e-07
50 *383:12 *1720:B 0.000209102
51 *383:12 *470:10 0.000281975
52 *383:12 *470:16 8.25747e-05
53 *383:12 *470:37 0.000132162
54 *383:12 *470:39 0.000120924
55 *383:31 *470:10 0
56 *392:8 *470:10 0
57 *393:10 *470:10 0
58 *395:8 *470:10 8.41012e-05
59 *396:10 *470:10 0
60 *404:24 *470:10 0
61 *469:42 *1846:B1 2.18506e-05
62 *469:50 *1846:B1 2.64616e-05
63 *469:82 *1720:B 7.06021e-05
64 *469:82 *470:39 2.76611e-06
*RES
1 *2055:X *470:8 43.8621 
2 *470:8 *470:10 15.6393 
3 *470:10 *470:16 20.4686 
4 *470:16 *470:24 34.5157 
5 *470:24 *1846:B1 25.5271 
6 *470:24 *470:37 21.8461 
7 *470:37 *470:39 3.49036 
8 *470:39 *1720:B 45.8921 
9 *470:39 *1802:B 40.0507 
10 *470:37 *1801:A2 39.5639 
11 *470:16 *1895:B 23 
12 *470:10 *1847:B 43.2407 
*END

*D_NET *471 0.00575599
*CONN
*I *1954:A I *D sky130_fd_sc_hd__nor2_2
*I *1601:A I *D sky130_fd_sc_hd__inv_2
*I *1950:C1 I *D sky130_fd_sc_hd__a211o_2
*I *2056:X O *D sky130_fd_sc_hd__clkdlybuf4s25_1
*CAP
1 *1954:A 0
2 *1601:A 0.000578597
3 *1950:C1 5.01584e-05
4 *2056:X 0.000490678
5 *471:59 0.00077533
6 *471:32 0.00146793
7 *471:10 0.000426829
8 *1601:A *2001:D 8.3014e-05
9 *1601:A *491:10 0.000401899
10 *1601:A *491:91 4.8568e-05
11 *1950:C1 *1943:A 3.91386e-05
12 *1950:C1 *1950:B1 7.53384e-06
13 *1950:C1 *472:10 6.09174e-05
14 *1950:C1 *472:31 0
15 *471:10 *472:31 9.48381e-06
16 *471:10 *515:10 0.000108681
17 *471:59 *1962:A 9.70579e-05
18 *471:59 *475:8 0.0002833
19 *471:59 *491:106 0.000100797
20 *1950:A2 *1950:C1 0
21 *2021:A *1601:A 6.29487e-05
22 *3:14 *471:32 2.79004e-05
23 *3:14 *471:59 0.000191115
24 *54:20 *471:59 0
25 *65:10 *471:59 6.25872e-05
26 *68:10 *471:59 0.000376132
27 *415:8 *471:59 0
28 *419:33 *471:59 0
29 *419:46 *471:59 0
30 *423:35 *1950:C1 5.38653e-06
*RES
1 *2056:X *471:10 43.0336 
2 *471:10 *1950:C1 39.4707 
3 *2056:X *471:32 39.8229 
4 *471:32 *1601:A 48.8129 
5 *471:32 *471:59 34.7614 
6 *471:59 *1954:A 23 
*END

*D_NET *472 0.0014309
*CONN
*I *1602:A I *D sky130_fd_sc_hd__inv_2
*I *1943:A I *D sky130_fd_sc_hd__and2_2
*I *2057:X O *D sky130_fd_sc_hd__clkdlybuf4s25_1
*CAP
1 *1602:A 0
2 *1943:A 2.15159e-05
3 *2057:X 0.000254206
4 *472:31 0.000279571
5 *472:10 0.000555292
6 *472:10 *1950:B1 1.65699e-05
7 *472:31 *515:10 0
8 *1950:C1 *1943:A 3.91386e-05
9 *1950:C1 *472:10 6.09174e-05
10 *1950:C1 *472:31 0
11 *60:10 *472:10 5.67058e-05
12 *407:34 *472:31 3.31728e-05
13 *423:12 *472:10 5.72217e-05
14 *423:35 *472:10 3.09685e-05
15 *423:35 *472:31 1.61377e-05
16 *471:10 *472:31 9.48381e-06
*RES
1 *2057:X *472:10 28.075 
2 *472:10 *1943:A 23.8493 
3 *472:10 *472:31 34.64 
4 *472:31 *1602:A 23 
*END

*D_NET *473 0.000920317
*CONN
*I *1957:A0 I *D sky130_fd_sc_hd__mux2_1
*I *2058:X O *D sky130_fd_sc_hd__clkdlybuf4s25_1
*CAP
1 *1957:A0 0.000128247
2 *2058:X 0.000101711
3 *473:8 0.000229958
4 *1957:A0 *478:83 0.000104747
5 *473:8 *478:83 1.07299e-05
6 *3:26 *1957:A0 7.95762e-05
7 *64:16 *473:8 6.58399e-05
8 *411:8 *473:8 8.57485e-05
9 *458:14 *1957:A0 0.000113758
*RES
1 *2058:X *473:8 39.9057 
2 *473:8 *1957:A0 41.3764 
*END

*D_NET *474 0.00460122
*CONN
*I *2096:A I *D sky130_fd_sc_hd__buf_2
*I *1614:D I *D sky130_fd_sc_hd__and4_2
*I *1768:B I *D sky130_fd_sc_hd__and4_2
*I *1683:A I *D sky130_fd_sc_hd__nand2_2
*I *1684:C I *D sky130_fd_sc_hd__nand4_4
*I *1685:A2 I *D sky130_fd_sc_hd__a22o_4
*I *2059:X O *D sky130_fd_sc_hd__buf_12
*CAP
1 *2096:A 0.000202962
2 *1614:D 0.000128677
3 *1768:B 0
4 *1683:A 1.80182e-05
5 *1684:C 0.000271029
6 *1685:A2 0.000274627
7 *2059:X 8.67743e-05
8 *474:16 0.000900019
9 *474:10 0.000798325
10 *474:8 0.00018108
11 *1683:A *497:6 2.93845e-05
12 *474:8 *495:20 2.04774e-05
13 *474:8 *495:22 5.08899e-05
14 *474:8 *495:26 4.21594e-06
15 *474:10 *495:26 6.28591e-05
16 *474:16 *485:12 8.09007e-05
17 *474:16 *485:14 0
18 *474:16 *485:20 0
19 *474:16 *495:26 0.000125003
20 *1614:B *1614:D 0.000141052
21 *1684:B *1685:A2 0.000141879
22 *1685:B1 *1614:D 5.41288e-05
23 *1685:B1 *1685:A2 5.67058e-05
24 *1687:C *474:16 1.02561e-05
25 *1767:A *474:16 1.07192e-05
26 *162:8 *474:16 7.20622e-05
27 *162:17 *474:16 6.59536e-05
28 *165:10 *474:16 0.000389195
29 *440:53 *1685:A2 1.19796e-05
30 *440:66 *1614:D 2.02517e-05
31 *440:66 *1685:A2 2.93845e-05
32 *440:75 *474:16 0
33 *441:36 *1685:A2 0
34 *441:46 *1683:A 5.50106e-05
35 *441:46 *474:16 0
36 *441:52 *474:10 6.22475e-05
37 *441:52 *474:16 4.6318e-06
38 *441:61 *474:8 0.000107548
39 *441:61 *474:10 3.20914e-05
40 *454:10 *1685:A2 1.14452e-05
41 *454:19 *1685:A2 8.94394e-05
*RES
1 *2059:X *474:8 40.9621 
2 *474:8 *474:10 2.61 
3 *474:10 *474:16 15.3493 
4 *474:16 *1685:A2 41.5836 
5 *474:16 *1684:C 39.0979 
6 *474:10 *1683:A 38.6214 
7 *474:8 *1768:B 38 
8 *1685:A2 *1614:D 49.0243 
9 *1684:C *2096:A 49.5214 
*END

*D_NET *475 0.00151618
*CONN
*I *1959:A0 I *D sky130_fd_sc_hd__mux2_1
*I *2060:X O *D sky130_fd_sc_hd__clkdlybuf4s25_1
*CAP
1 *1959:A0 9.08439e-05
2 *2060:X 0.000295713
3 *475:8 0.000386557
4 *1959:A1 *1959:A0 9.66668e-05
5 *456:8 *475:8 0.000351457
6 *458:24 *475:8 1.16455e-05
7 *471:59 *475:8 0.0002833
*RES
1 *2060:X *475:8 45.8921 
2 *475:8 *1959:A0 39.5743 
*END

*D_NET *476 0.00109786
*CONN
*I *1961:A0 I *D sky130_fd_sc_hd__mux2_1
*I *2061:X O *D sky130_fd_sc_hd__clkdlybuf4s25_1
*CAP
1 *1961:A0 0
2 *2061:X 0.000188999
3 *476:6 0.000188999
4 *476:6 *1961:S 6.72291e-05
5 *1954:B *476:6 0.000189857
6 *62:12 *476:6 0.000232049
7 *409:28 *476:6 0.000230723
*RES
1 *2061:X *476:6 28.8621 
2 *476:6 *1961:A0 23 
*END

*D_NET *477 0.00172746
*CONN
*I *1963:C I *D sky130_fd_sc_hd__and3b_2
*I *2062:X O *D sky130_fd_sc_hd__clkdlybuf4s25_1
*CAP
1 *1963:C 0.000500921
2 *2062:X 8.87935e-05
3 *477:8 0.000589714
4 *1963:C *1963:B 4.96675e-06
5 *1963:C *1969:B 0.000103647
6 *1963:A_N *1963:C 0.00043942
7 *420:12 *477:8 0
*RES
1 *2062:X *477:8 39.2014 
2 *477:8 *1963:C 45.7212 
*END

*D_NET *478 0.00796648
*CONN
*I *1957:S I *D sky130_fd_sc_hd__mux2_1
*I *2070:A I *D sky130_fd_sc_hd__clkdlybuf4s25_1
*I *1961:S I *D sky130_fd_sc_hd__mux2_1
*I *2029:A I *D sky130_fd_sc_hd__dlygate4sd3_1
*I *1959:S I *D sky130_fd_sc_hd__mux2_1
*I *1965:A1 I *D sky130_fd_sc_hd__mux2_1
*I *1987:Q O *D sky130_fd_sc_hd__dfxtp_2
*CAP
1 *1957:S 0
2 *2070:A 0
3 *1961:S 0.00010945
4 *2029:A 6.12738e-05
5 *1959:S 8.06001e-05
6 *1965:A1 0.000173992
7 *1987:Q 0
8 *478:83 0.000373655
9 *478:64 0.000881516
10 *478:45 0.00119279
11 *478:23 0.000141874
12 *478:21 0.00049119
13 *478:8 0.000731041
14 *478:4 0.00064134
15 *478:64 *1963:B 9.26098e-05
16 *478:64 *492:10 9.37986e-05
17 *478:64 *492:34 0.000167217
18 *1954:B *1961:S 5.5792e-05
19 *1957:A0 *478:83 0.000104747
20 *1958:B *1965:A1 0.00010018
21 *1981:CLK *1965:A1 3.67392e-05
22 *1981:CLK *478:21 0.000128654
23 *1983:CLK *478:45 0
24 *3:26 *1959:S 6.29725e-05
25 *3:26 *2029:A 6.69072e-05
26 *3:34 *478:83 9.96425e-06
27 *62:12 *478:21 4.63936e-05
28 *62:12 *478:45 4.16878e-06
29 *66:10 *478:64 0
30 *67:8 *478:64 0
31 *409:28 *478:45 4.50551e-05
32 *411:8 *1965:A1 0
33 *411:8 *478:83 0.000300463
34 *419:46 *1965:A1 0.000251701
35 *435:8 *478:83 0.000141038
36 *441:10 *478:64 0.000385726
37 *457:10 *478:83 2.71504e-05
38 *458:14 *1959:S 0.000186032
39 *458:14 *2029:A 0.000180703
40 *458:14 *478:83 0.000187601
41 *460:8 *478:45 8.65125e-05
42 *460:8 *478:64 0.000247678
43 *473:8 *478:83 1.07299e-05
44 *476:6 *1961:S 6.72291e-05
*RES
1 *1987:Q *478:4 23 
2 *478:4 *478:8 18.48 
3 *478:8 *1965:A1 42.7643 
4 *478:8 *478:21 4.37071 
5 *478:21 *478:23 15 
6 *478:23 *1959:S 25.5479 
7 *478:23 *2029:A 25.5479 
8 *478:21 *478:45 4.28786 
9 *478:45 *1961:S 40.0507 
10 *478:45 *478:64 33.9536 
11 *478:64 *2070:A 23 
12 *478:4 *478:83 38.6379 
13 *478:83 *1957:S 23 
*END

*D_NET *479 0.000453796
*CONN
*I *2071:A I *D sky130_fd_sc_hd__clkdlybuf4s25_1
*I *1988:Q O *D sky130_fd_sc_hd__dfxtp_2
*CAP
1 *2071:A 0
2 *1988:Q 0.000224875
3 *479:10 0.000224875
4 *27:9 *479:10 0
5 *58:10 *479:10 0
6 *447:51 *479:10 4.04598e-06
*RES
1 *1988:Q *479:10 41.3557 
2 *479:10 *2071:A 38 
*END

*D_NET *480 0.00398633
*CONN
*I *2072:A I *D sky130_fd_sc_hd__clkdlybuf4s25_1
*I *1935:Y O *D sky130_fd_sc_hd__nor2_2
*CAP
1 *2072:A 0
2 *1935:Y 4.56652e-05
3 *480:12 0.000916466
4 *480:8 0.000962131
5 *480:12 *1648:A2 2.49836e-05
6 *480:12 *519:10 2.76611e-06
7 *480:12 *519:31 0.000139657
8 *480:12 *519:38 0.000108163
9 *480:12 *519:95 0.000192087
10 *1649:B *480:12 0
11 *1654:D *480:8 9.84794e-05
12 *1732:A2_N *480:12 0
13 *124:53 *480:12 0.000240416
14 *347:10 *480:12 0.00010546
15 *383:10 *480:12 0
16 *446:85 *480:12 0.000773489
17 *447:113 *480:12 0
18 *448:49 *480:12 0.000215801
19 *455:49 *480:12 0.000160768
20 *455:68 *480:12 0
*RES
1 *1935:Y *480:8 39.0979 
2 *480:8 *480:12 37.33 
3 *480:12 *2072:A 23 
*END

*D_NET *481 0.000417248
*CONN
*I *2073:A I *D sky130_fd_sc_hd__clkdlybuf4s25_1
*I *1936:Y O *D sky130_fd_sc_hd__xnor2_2
*CAP
1 *2073:A 0
2 *1936:Y 0.000172198
3 *481:10 0.000172198
4 *40:8 *481:10 0
5 *340:10 *481:10 7.28526e-05
*RES
1 *1936:Y *481:10 41.0036 
2 *481:10 *2073:A 38 
*END

*D_NET *482 0.000939505
*CONN
*I *2074:A I *D sky130_fd_sc_hd__dlymetal6s2s_1
*I *1681:Y O *D sky130_fd_sc_hd__xnor2_2
*CAP
1 *2074:A 0
2 *1681:Y 0.000469753
3 *482:10 0.000469753
*RES
1 *1681:Y *482:10 31.3893 
2 *482:10 *2074:A 23 
*END

*D_NET *483 0.000417248
*CONN
*I *2075:A I *D sky130_fd_sc_hd__buf_6
*I *1750:Y O *D sky130_fd_sc_hd__xnor2_2
*CAP
1 *2075:A 0
2 *1750:Y 0.000172198
3 *483:10 0.000172198
4 y[3] *483:10 0
5 *340:10 *483:10 7.28526e-05
*RES
1 *1750:Y *483:10 41.0036 
2 *483:10 *2075:A 38 
*END

*D_NET *484 0.000758242
*CONN
*I *2076:A I *D sky130_fd_sc_hd__buf_6
*I *1818:X O *D sky130_fd_sc_hd__xor2_2
*CAP
1 *2076:A 0
2 *1818:X 0.000227722
3 *484:8 0.000227722
4 *1744:B *484:8 0
5 *43:8 *484:8 0
6 *206:10 *484:8 9.63918e-05
7 *340:10 *484:8 0.000206405
*RES
1 *1818:X *484:8 43.4271 
2 *484:8 *2076:A 38 
*END

*D_NET *485 0.0100134
*CONN
*I *1769:B I *D sky130_fd_sc_hd__nand2_2
*I *1832:A1 I *D sky130_fd_sc_hd__a22oi_2
*I *1833:B I *D sky130_fd_sc_hd__and4_2
*I *1768:C I *D sky130_fd_sc_hd__and4_2
*I *1687:B I *D sky130_fd_sc_hd__nand4_2
*I *1686:A2 I *D sky130_fd_sc_hd__a22o_4
*I *1617:B I *D sky130_fd_sc_hd__and3_2
*I *1616:B I *D sky130_fd_sc_hd__nand2_2
*I *2063:X O *D sky130_fd_sc_hd__dlymetal6s2s_1
*CAP
1 *1769:B 4.98619e-05
2 *1832:A1 2.59126e-05
3 *1833:B 0
4 *1768:C 7.40913e-05
5 *1687:B 0
6 *1686:A2 2.95011e-05
7 *1617:B 0.000135652
8 *1616:B 0
9 *2063:X 0.000107903
10 *485:103 0.00045391
11 *485:80 0.000572147
12 *485:69 0.000245718
13 *485:26 0.000109309
14 *485:20 0.00105694
15 *485:14 0.000941175
16 *485:12 0.000404605
17 *485:10 0.000526581
18 *485:8 0.000359011
19 *1832:A1 *495:18 5.50106e-05
20 *485:80 *495:10 1.14452e-05
21 *485:103 *1885:B 5.3304e-05
22 *485:103 *495:10 2.38199e-05
23 *1686:A1 *485:20 6.59263e-05
24 *1686:B2 *1686:A2 5.50106e-05
25 *1686:B2 *485:20 0.000148698
26 *1688:A *1617:B 3.7122e-06
27 *1688:A *485:20 1.59094e-05
28 *1688:B *485:20 5.31757e-05
29 *1768:A *1768:C 3.16784e-05
30 *1769:A *1769:B 2.02517e-05
31 *1769:A *1832:A1 1.59094e-05
32 *1770:A2 *485:80 7.90714e-05
33 *1770:A2 *485:103 3.6625e-05
34 *1770:B1 *485:8 5.3304e-05
35 *1832:A2 *485:80 2.24608e-05
36 *1835:A *485:10 3.47781e-05
37 *1835:A *485:69 0.000209748
38 *1835:B *485:69 5.3304e-05
39 *1835:B *485:80 5.3304e-05
40 *1836:A *485:103 0.000267173
41 *1836:B *485:103 9.84851e-05
42 *1885:A *485:80 2.34364e-05
43 *1885:C *485:103 0.000151898
44 *93:19 *485:26 0.000352538
45 *94:29 *1617:B 2.98475e-06
46 *164:12 *485:20 1.73399e-05
47 *165:10 *485:12 0.000224669
48 *165:10 *485:14 6.07611e-06
49 *245:8 *485:10 0.00035793
50 *251:10 *485:103 0
51 *308:8 *485:103 0.000137788
52 *309:8 *485:103 0
53 *309:12 *485:103 9.67842e-05
54 *360:10 *485:103 2.31797e-05
55 *438:67 *485:26 2.5343e-05
56 *438:69 *485:26 0.000329417
57 *440:75 *485:10 4.17929e-05
58 *440:75 *485:12 0.00042242
59 *440:75 *485:14 9.6289e-05
60 *440:75 *485:20 4.68476e-05
61 *440:86 *485:10 1.22906e-05
62 *441:52 *485:12 0.000140949
63 *441:61 *485:10 0.000488373
64 *441:61 *485:12 2.55642e-05
65 *441:61 *485:69 0.000223043
66 *441:61 *485:80 5.94125e-05
67 *441:72 *485:80 7.17297e-05
68 *474:16 *485:12 8.09007e-05
69 *474:16 *485:14 0
70 *474:16 *485:20 0
*RES
1 *2063:X *485:8 39.5743 
2 *485:8 *485:10 6.48357 
3 *485:10 *485:12 11.0614 
4 *485:12 *485:14 2.61 
5 *485:14 *485:20 26.8279 
6 *485:20 *485:26 34.7229 
7 *485:26 *1616:B 23 
8 *485:20 *1617:B 24.5743 
9 *485:14 *1686:A2 38.6214 
10 *485:12 *1687:B 38 
11 *485:10 *1768:C 39.0979 
12 *485:8 *485:69 18.5836 
13 *485:69 *1833:B 23 
14 *485:69 *485:80 18.2314 
15 *485:80 *1832:A1 38.6214 
16 *485:80 *485:103 39.5907 
17 *485:103 *1769:B 39.1186 
*END

*D_NET *486 0.00106563
*CONN
*I *2077:A I *D sky130_fd_sc_hd__buf_6
*I *1870:X O *D sky130_fd_sc_hd__xor2_2
*CAP
1 *2077:A 0
2 *1870:X 0.000384792
3 *486:10 0.000384792
4 *340:10 *486:10 0.000222193
5 *381:8 *486:10 7.38527e-05
*RES
1 *1870:X *486:10 47.2179 
2 *486:10 *2077:A 38 
*END

*D_NET *487 0.000893164
*CONN
*I *2078:A I *D sky130_fd_sc_hd__buf_6
*I *1907:Y O *D sky130_fd_sc_hd__xnor2_2
*CAP
1 *2078:A 7.19776e-05
2 *1907:Y 0.000216385
3 *487:8 0.000288363
4 *1927:A1 *487:8 0
5 *45:10 *2078:A 0.000185428
6 *45:10 *487:8 0.000131009
*RES
1 *1907:Y *487:8 43.075 
2 *487:8 *2078:A 40.0507 
*END

*D_NET *488 0.000389708
*CONN
*I *2079:A I *D sky130_fd_sc_hd__buf_6
*I *1928:X O *D sky130_fd_sc_hd__xor2_2
*CAP
1 *2079:A 0
2 *1928:X 0.000194854
3 *488:10 0.000194854
4 *401:27 *488:10 0
*RES
1 *1928:X *488:10 41.5836 
2 *488:10 *2079:A 38 
*END

*D_NET *489 0.000627987
*CONN
*I *2080:A I *D sky130_fd_sc_hd__buf_6
*I *1933:X O *D sky130_fd_sc_hd__xor2_2
*CAP
1 *2080:A 4.74718e-05
2 *1933:X 0.000167189
3 *489:8 0.000214661
4 *1937:A1 *2080:A 0.00014196
5 *47:8 *2080:A 5.67058e-05
6 *402:21 *489:8 0
*RES
1 *1933:X *489:8 40.9621 
2 *489:8 *2080:A 39.5743 
*END

*D_NET *490 0.000593062
*CONN
*I *2081:A I *D sky130_fd_sc_hd__buf_6
*I *1937:X O *D sky130_fd_sc_hd__a21o_2
*CAP
1 *2081:A 0.000180575
2 *1937:X 0.000180575
3 *1937:A1 *2081:A 7.84283e-05
4 *1937:B1 *2081:A 5.50049e-05
5 *48:10 *2081:A 9.84794e-05
*RES
1 *1937:X *2081:A 49.9771 
*END

*D_NET *491 0.014561
*CONN
*I *1958:A I *D sky130_fd_sc_hd__and2_2
*I *1962:A I *D sky130_fd_sc_hd__and2_2
*I *1960:A I *D sky130_fd_sc_hd__and2_2
*I *1966:A I *D sky130_fd_sc_hd__and2_2
*I *1940:A I *D sky130_fd_sc_hd__and2_2
*I *1948:A I *D sky130_fd_sc_hd__and2_2
*I *1944:A I *D sky130_fd_sc_hd__and2_2
*I *1949:A I *D sky130_fd_sc_hd__and2_2
*I *1956:B1 I *D sky130_fd_sc_hd__o21a_2
*I *1947:A I *D sky130_fd_sc_hd__and2_2
*I *2021:X O *D sky130_fd_sc_hd__clkdlybuf4s25_1
*CAP
1 *1958:A 0.000260375
2 *1962:A 0.000295224
3 *1960:A 0
4 *1966:A 0
5 *1940:A 0
6 *1948:A 1.15278e-05
7 *1944:A 0.000956474
8 *1949:A 0.000212079
9 *1956:B1 8.70289e-05
10 *1947:A 0
11 *2021:X 0.00125215
12 *491:106 0.000656628
13 *491:100 0.00073905
14 *491:91 0.000870493
15 *491:35 0.00092609
16 *491:31 0.00185072
17 *491:27 0.00049412
18 *491:23 0.000317925
19 *491:16 0.000216165
20 *491:10 0.000612498
21 *1944:A *1939:A 1.32939e-05
22 *1944:A *1941:A 1.41077e-05
23 *1944:A *1941:B 0.00010018
24 *1944:A *1945:B 0.000396348
25 *1944:A *520:16 3.87591e-05
26 *1944:A *522:6 0.00039127
27 *1944:A *526:18 4.89757e-05
28 *491:10 *1947:B 0.000348176
29 *491:31 *1941:A 1.94693e-05
30 *491:31 *1948:B 3.22467e-05
31 *491:35 *1948:B 0
32 *491:35 *1953:B 0
33 *491:35 *515:27 0.000320651
34 *491:35 *522:21 9.50092e-05
35 *491:91 *2001:D 2.11102e-05
36 *1601:A *491:10 0.000401899
37 *1601:A *491:91 4.8568e-05
38 *1956:A1 *1949:A 2.45092e-05
39 *1956:A1 *1956:B1 5.65876e-05
40 *1956:A1 *491:35 0.000190263
41 *1956:A2 *1956:B1 2.33679e-05
42 *2021:A *491:10 1.76557e-05
43 *3:14 *491:91 5.61311e-05
44 *3:14 *491:100 7.55832e-05
45 *3:14 *491:106 7.39551e-05
46 *4:8 *1962:A 0.000180019
47 *33:13 *491:91 0
48 *33:13 *491:100 0
49 *35:15 *491:106 0
50 *50:10 *491:31 6.71408e-06
51 *50:10 *491:35 6.53183e-05
52 *51:8 *491:10 0.000165304
53 *55:8 *1949:A 0.000182705
54 *58:10 *1944:A 5.83407e-05
55 *65:10 *1962:A 0
56 *407:34 *491:10 0
57 *408:16 *491:35 6.16531e-05
58 *413:10 *1962:A 0.000353858
59 *416:25 *491:10 9.88574e-06
60 *416:25 *491:35 1.37349e-05
61 *416:46 *1949:A 0.000214895
62 *416:46 *491:35 0.000196193
63 *418:81 *491:35 8.21456e-06
64 *434:10 *491:35 0.000136486
65 *436:8 *491:106 0.000143166
66 *471:59 *1962:A 9.70579e-05
67 *471:59 *491:106 0.000100797
*RES
1 *2021:X *491:10 48.1086 
2 *491:10 *491:16 17.0714 
3 *491:16 *1947:A 23 
4 *491:16 *491:23 2.05071 
5 *491:23 *491:27 3.50071 
6 *491:27 *491:31 3.97714 
7 *491:31 *491:35 29.5829 
8 *491:35 *1956:B1 39.595 
9 *491:35 *1949:A 44.1314 
10 *491:31 *1944:A 40.4829 
11 *491:27 *1948:A 23.4971 
12 *491:23 *1940:A 23 
13 *2021:X *491:91 48.5021 
14 *491:91 *1966:A 38 
15 *491:91 *491:100 2.96214 
16 *491:100 *491:106 9.36286 
17 *491:106 *1960:A 38 
18 *491:106 *1962:A 46.2443 
19 *491:100 *1958:A 42.1014 
*END

*D_NET *492 0.00825129
*CONN
*I *1970:B I *D sky130_fd_sc_hd__and2_2
*I *1968:B I *D sky130_fd_sc_hd__and2_2
*I *1971:B I *D sky130_fd_sc_hd__and2_2
*I *1969:B I *D sky130_fd_sc_hd__and2_2
*I *1963:B I *D sky130_fd_sc_hd__and3b_2
*I *2022:X O *D sky130_fd_sc_hd__clkdlybuf4s25_1
*CAP
1 *1970:B 0
2 *1968:B 0
3 *1971:B 0
4 *1969:B 0.000234583
5 *1963:B 0.000445742
6 *2022:X 0.000361823
7 *492:53 0.000646098
8 *492:41 0.000794927
9 *492:34 0.000398224
10 *492:10 0.000776761
11 *492:8 0.000707654
12 *492:53 *1627:A 0.000139346
13 *492:53 *1675:A1 0
14 *1623:A2 *492:53 0.000145958
15 *1675:B2 *492:53 5.67058e-05
16 *1963:A_N *1963:B 3.93636e-05
17 *1963:C *1963:B 4.96675e-06
18 *1963:C *1969:B 0.000103647
19 *1970:A *492:41 0.00014196
20 *1983:CLK *1963:B 0
21 *1983:CLK *492:10 0
22 *1984:D *1963:B 0.000159874
23 *1990:CLK *1969:B 0.000232409
24 *2015:A *492:53 1.70074e-05
25 *2022:A *492:8 1.17821e-05
26 *38:15 *492:8 0.000358425
27 *72:10 *492:53 7.88828e-05
28 *73:8 *492:34 0.000270603
29 *102:6 *492:53 0.000119145
30 *418:47 *492:53 1.2377e-05
31 *420:12 *492:10 0
32 *420:12 *492:34 0
33 *438:46 *492:53 9.77922e-06
34 *438:52 *492:53 0.000191255
35 *438:124 *492:53 9.58714e-05
36 *439:8 *1969:B 0.000273059
37 *439:19 *1969:B 0.000102389
38 *440:8 *492:34 0.00014411
39 *440:25 *492:34 2.55642e-05
40 *441:10 *492:34 0.000385726
41 *441:19 *492:34 1.14452e-05
42 *445:23 *492:53 0.000215782
43 *454:56 *492:53 0.000184424
44 *478:64 *1963:B 9.26098e-05
45 *478:64 *492:10 9.37986e-05
46 *478:64 *492:34 0.000167217
*RES
1 *2022:X *492:8 43.3857 
2 *492:8 *492:10 1.90571 
3 *492:10 *1963:B 45.0636 
4 *492:10 *1969:B 45.2914 
5 *492:8 *492:34 24.6529 
6 *492:34 *1971:B 23 
7 *492:34 *492:41 3.00357 
8 *492:41 *492:53 46.1364 
9 *492:53 *1968:B 23 
10 *492:41 *1970:B 23 
*END

*D_NET *493 0.0133879
*CONN
*I *1967:A I *D sky130_fd_sc_hd__and2_2
*I *1939:A I *D sky130_fd_sc_hd__and2_2
*I *1945:A I *D sky130_fd_sc_hd__and2_2
*I *1941:A I *D sky130_fd_sc_hd__and2_2
*I *1946:A I *D sky130_fd_sc_hd__and2_2
*I *1973:B I *D sky130_fd_sc_hd__and2_2
*I *1972:B I *D sky130_fd_sc_hd__and2_2
*I *1942:A I *D sky130_fd_sc_hd__and2_2
*I *1938:B I *D sky130_fd_sc_hd__and2_2
*I *1951:B1 I *D sky130_fd_sc_hd__o41a_2
*I *2023:X O *D sky130_fd_sc_hd__clkdlybuf4s25_1
*CAP
1 *1967:A 0.00021768
2 *1939:A 0.000204976
3 *1945:A 0
4 *1941:A 0.000131553
5 *1946:A 6.50476e-05
6 *1973:B 0.000202449
7 *1972:B 2.18824e-05
8 *1942:A 0.00030604
9 *1938:B 0
10 *1951:B1 0
11 *2023:X 0
12 *493:116 0.000598899
13 *493:94 0.00031122
14 *493:88 0.000858541
15 *493:57 0.000372561
16 *493:46 0.000836252
17 *493:37 0.000569384
18 *493:25 0.000951365
19 *493:23 0.000496122
20 *493:10 0.000707684
21 *493:4 0.000779242
22 *1939:A *520:16 5.55676e-05
23 *1939:A *526:18 1.92164e-05
24 *1941:A *1941:B 5.41288e-05
25 *1941:A *522:6 7.88926e-05
26 *1942:A *1942:B 0.000710012
27 *1967:A *1967:B 0.000438462
28 *1967:A *520:8 4.08641e-05
29 *1967:A *526:18 1.86945e-05
30 *493:10 *525:14 2.08324e-05
31 *493:23 *525:14 0.000117775
32 *493:37 *1938:A 5.67058e-05
33 *493:37 *517:8 0.000574102
34 *493:94 *1945:B 0.000229104
35 *493:94 *522:6 4.19743e-05
36 *493:116 *1945:B 5.29672e-05
37 *493:116 *520:8 2.57346e-05
38 *1944:A *1939:A 1.32939e-05
39 *1944:A *1941:A 1.41077e-05
40 *1951:A3 *493:37 0.000166387
41 *1951:A3 *493:46 6.2088e-05
42 *1972:A *1973:B 7.61229e-06
43 *1972:A *493:57 5.76359e-05
44 *1973:A *1973:B 0.000140312
45 *1973:A *493:57 6.63793e-06
46 *2013:A *1942:A 8.18509e-05
47 *2040:A *493:94 0.000228909
48 *2044:A *493:46 0.00034252
49 *53:10 *493:88 0
50 *53:10 *493:94 0.000156572
51 *56:14 *1941:A 0.00014196
52 *56:14 *493:94 0.000230604
53 *61:6 *493:37 0.000153455
54 *75:10 *1973:B 1.24376e-05
55 *408:8 *493:10 0
56 *408:8 *493:88 0.000242597
57 *418:6 *1942:A 0.000157861
58 *418:15 *1942:A 7.01419e-05
59 *418:62 *1942:A 4.69418e-05
60 *418:62 *493:57 7.64944e-05
61 *418:67 *493:37 3.42445e-05
62 *418:67 *493:46 4.91209e-05
63 *421:35 *493:10 1.45145e-05
64 *421:35 *493:23 0
65 *421:35 *493:88 0
66 *425:12 *493:37 7.42621e-05
67 *425:14 *493:37 0.000119486
68 *429:10 *493:37 0
69 *429:14 *493:10 0
70 *429:14 *493:37 0
71 *429:27 *1967:A 0.00015609
72 *429:27 *493:88 2.93747e-05
73 *429:27 *493:116 1.14452e-05
74 *432:8 *1946:A 2.64616e-05
75 *432:8 *493:23 6.17437e-06
76 *433:8 *1967:A 0.000189272
77 *443:12 *1942:A 8.16251e-05
78 *491:31 *1941:A 1.94693e-05
*RES
1 *2023:X *493:4 23 
2 *493:4 *493:10 19.7643 
3 *493:10 *1951:B1 38 
4 *493:10 *493:23 22.7471 
5 *493:23 *493:25 15 
6 *493:25 *493:37 30.08 
7 *493:37 *1938:B 23 
8 *493:25 *493:46 22.8921 
9 *493:46 *1942:A 33.6471 
10 *493:46 *493:57 3.00357 
11 *493:57 *1972:B 23.4971 
12 *493:57 *1973:B 27.4536 
13 *493:23 *1946:A 24.0979 
14 *493:4 *493:88 39.2386 
15 *493:88 *493:94 6.98071 
16 *493:94 *1941:A 26.48 
17 *493:94 *1945:A 23 
18 *493:88 *493:116 18.6664 
19 *493:116 *1939:A 41.2521 
20 *493:116 *1967:A 45.1671 
*END

*D_NET *494 0.00627138
*CONN
*I *1977:B I *D sky130_fd_sc_hd__and2_2
*I *1978:B I *D sky130_fd_sc_hd__and2_2
*I *1976:B I *D sky130_fd_sc_hd__and2_2
*I *1979:B I *D sky130_fd_sc_hd__and2_2
*I *1974:B I *D sky130_fd_sc_hd__and2_2
*I *1975:B I *D sky130_fd_sc_hd__and2_2
*I *2024:X O *D sky130_fd_sc_hd__clkdlybuf4s25_1
*CAP
1 *1977:B 0.000220023
2 *1978:B 0
3 *1976:B 0.000325051
4 *1979:B 2.34823e-05
5 *1974:B 2.34823e-05
6 *1975:B 0.000276233
7 *2024:X 0
8 *494:47 0.000404176
9 *494:45 0.000730997
10 *494:32 0.000832812
11 *494:23 0.000622944
12 *494:4 0.000498214
13 *1976:B *529:8 1.14452e-05
14 *494:45 *529:8 0.00037336
15 *494:47 *529:8 0.000185104
16 *1974:A *494:23 0.00010018
17 *2047:A *494:45 0.000141954
18 *76:10 *494:23 9.84851e-05
19 *76:10 *494:32 8.6949e-05
20 *77:10 *1975:B 8.79488e-05
21 *78:8 *1976:B 0.000110258
22 *80:12 *494:45 0.000149341
23 *80:12 *494:47 7.03766e-05
24 *422:10 *494:45 0.000114083
25 *422:14 *494:45 0.000119313
26 *422:24 *494:45 4.66047e-05
27 *443:22 *494:23 3.81391e-05
28 *444:8 *1975:B 0.000312348
29 *448:14 *1976:B 0
30 *449:19 *1977:B 0.00026808
31 *463:8 *1976:B 0
32 *463:8 *494:47 0
*RES
1 *2024:X *494:4 23 
2 *494:4 *1975:B 29.38 
3 *494:4 *494:23 34.5571 
4 *494:23 *1974:B 23.4971 
5 *494:23 *494:32 6.815 
6 *494:32 *1979:B 23.4971 
7 *494:32 *494:45 26.2893 
8 *494:45 *494:47 2.61 
9 *494:47 *1976:B 44.4007 
10 *494:47 *1978:B 38 
11 *494:45 *1977:B 42.4329 
*END

*D_NET *495 0.00676593
*CONN
*I *1885:B I *D sky130_fd_sc_hd__and3_2
*I *1832:B1 I *D sky130_fd_sc_hd__a22oi_2
*I *1833:D I *D sky130_fd_sc_hd__and4_2
*I *1772:B I *D sky130_fd_sc_hd__and3_2
*I *1771:A2 I *D sky130_fd_sc_hd__a21oi_2
*I *1690:B I *D sky130_fd_sc_hd__nand4_2
*I *1691:A2 I *D sky130_fd_sc_hd__a22o_4
*I *2064:X O *D sky130_fd_sc_hd__clkdlybuf4s25_1
*CAP
1 *1885:B 0.000135086
2 *1832:B1 0
3 *1833:D 7.07258e-05
4 *1772:B 0.000308935
5 *1771:A2 0
6 *1690:B 0.000466989
7 *1691:A2 0.00023249
8 *2064:X 0
9 *495:26 0.000972094
10 *495:22 0.000345447
11 *495:20 0.000618058
12 *495:18 0.000544483
13 *495:10 0.00029983
14 *495:4 0.000197449
15 *1691:A1 *1691:A2 5.59684e-05
16 *1691:B1 *1690:B 0.000483741
17 *1691:B1 *1691:A2 1.32314e-05
18 *1767:A *495:26 0.000139647
19 *1769:A *495:18 2.29091e-05
20 *1770:A2 *495:18 1.89075e-05
21 *1770:A2 *495:20 9.98891e-05
22 *1832:A1 *495:18 5.50106e-05
23 *1832:A2 *495:18 0.000219383
24 *1835:B *1833:D 0.000139352
25 *1836:A *1885:B 2.02872e-05
26 *1885:A *495:10 0.000168744
27 *161:10 *495:20 0.000144168
28 *161:10 *495:22 8.51225e-05
29 *161:10 *495:26 8.16253e-05
30 *169:8 *1690:B 3.34247e-05
31 *246:8 *495:18 4.67488e-05
32 *249:10 *1772:B 1.04148e-05
33 *249:10 *495:18 2.76611e-06
34 *249:10 *495:20 7.91206e-05
35 *308:8 *495:10 0.000110913
36 *309:8 *495:18 0.000110913
37 *311:12 *1885:B 1.21972e-05
38 *439:81 *495:26 0
39 *441:46 *495:26 6.78463e-05
40 *441:61 *495:20 0
41 *474:8 *495:20 2.04774e-05
42 *474:8 *495:22 5.08899e-05
43 *474:8 *495:26 4.21594e-06
44 *474:10 *495:26 6.28591e-05
45 *474:16 *495:26 0.000125003
46 *485:80 *495:10 1.14452e-05
47 *485:103 *1885:B 5.3304e-05
48 *485:103 *495:10 2.38199e-05
*RES
1 *2064:X *495:4 23 
2 *495:4 *495:10 32.2579 
3 *495:10 *495:18 20.2821 
4 *495:18 *495:20 6.83571 
5 *495:20 *495:22 2.25786 
6 *495:22 *495:26 22.54 
7 *495:26 *1691:A2 26.3764 
8 *495:26 *1690:B 30.1879 
9 *495:22 *1771:A2 38 
10 *495:20 *1772:B 41.48 
11 *495:18 *1833:D 39.5743 
12 *495:10 *1832:B1 23 
13 *495:4 *1885:B 24.5743 
*END

*D_NET *496 0.00197004
*CONN
*I *1807:A1 I *D sky130_fd_sc_hd__a21oi_2
*I *1632:A I *D sky130_fd_sc_hd__inv_2
*I *2082:X O *D sky130_fd_sc_hd__buf_2
*CAP
1 *1807:A1 0.000388983
2 *1632:A 0
3 *2082:X 0.000383705
4 *496:10 0.000772687
5 *1720:A *1807:A1 0
6 *1722:A *1807:A1 0
7 *1722:A *496:10 0
8 *1723:B *496:10 0
9 *110:14 *496:10 8.56515e-05
10 *111:26 *1807:A1 0.000135547
11 *113:10 *496:10 0
12 *116:8 *496:10 0
13 *196:6 *1807:A1 9.67842e-05
14 *196:12 *1807:A1 9.63918e-05
15 *468:8 *496:10 1.02949e-05
*RES
1 *2082:X *496:10 44.1729 
2 *496:10 *1632:A 38 
3 *496:10 *1807:A1 45.83 
*END

*D_NET *497 0.0139126
*CONN
*I *1609:A I *D sky130_fd_sc_hd__and4_2
*I *1603:A2 I *D sky130_fd_sc_hd__a22o_2
*I *1610:A I *D sky130_fd_sc_hd__nand4_2
*I *1622:A1 I *D sky130_fd_sc_hd__a22o_2
*I *1675:A1 I *D sky130_fd_sc_hd__a22oi_2
*I *1627:A I *D sky130_fd_sc_hd__and4_2
*I *1605:B I *D sky130_fd_sc_hd__nand4_2
*I *1698:B I *D sky130_fd_sc_hd__nand4_2
*I *1604:B I *D sky130_fd_sc_hd__and4_2
*I *1699:B2 I *D sky130_fd_sc_hd__a22o_2
*I *2065:X O *D sky130_fd_sc_hd__clkbuf_2
*CAP
1 *1609:A 4.93533e-05
2 *1603:A2 2.25851e-05
3 *1610:A 0
4 *1622:A1 0.000195237
5 *1675:A1 0.000274003
6 *1627:A 8.95799e-05
7 *1605:B 0
8 *1698:B 0
9 *1604:B 0.000754014
10 *1699:B2 0
11 *2065:X 0.00101231
12 *497:90 0.00046924
13 *497:81 0.000325871
14 *497:75 0.000727099
15 *497:71 0.000770335
16 *497:58 0.000495507
17 *497:50 0.000679536
18 *497:25 0.000672398
19 *497:14 0.00060439
20 *497:6 0.0013067
21 *1604:B *1699:A2 1.37232e-05
22 *497:50 *512:80 2.93747e-05
23 *497:50 *514:33 0.000187977
24 *497:58 *1605:D 9.58714e-05
25 *497:71 *506:30 1.12487e-05
26 *1604:C *497:50 5.50049e-05
27 *1605:C *497:58 0.000136738
28 *1605:C *497:71 1.24376e-05
29 *1606:B *497:71 0
30 *1606:B *497:75 2.76611e-06
31 *1609:D *1609:A 6.17437e-06
32 *1627:B *497:81 1.03955e-05
33 *1675:B2 *1675:A1 0
34 *1676:B *497:81 0.00044481
35 *1683:A *497:6 2.93845e-05
36 *1696:A *497:50 0.000188256
37 *1698:A *1604:B 0.000185428
38 *1698:A *497:25 0
39 *1698:D *497:25 0
40 *1699:B1 *497:25 0.000299745
41 *1776:A *497:6 5.47927e-05
42 *89:12 *497:75 8.4047e-05
43 *89:12 *497:81 3.04715e-05
44 *102:6 *1627:A 0.00039759
45 *102:6 *497:81 5.91638e-05
46 *103:10 *497:75 0
47 *105:8 *497:75 0
48 *106:12 *1622:A1 5.58873e-06
49 *106:18 *497:75 2.33476e-05
50 *106:29 *497:81 1.09903e-05
51 *161:10 *497:6 9.67842e-05
52 *173:8 *497:58 2.02872e-05
53 *173:8 *497:71 2.02872e-05
54 *177:10 *1604:B 1.90232e-05
55 *177:10 *497:25 0.000311321
56 *418:47 *1675:A1 7.24484e-05
57 *438:124 *1627:A 2.32101e-05
58 *441:46 *497:6 5.25188e-05
59 *441:52 *497:6 2.93845e-05
60 *442:77 *497:50 6.48142e-05
61 *442:77 *497:58 0.000186073
62 *442:77 *497:75 0
63 *442:88 *497:50 0.000157309
64 *443:41 *1622:A1 7.48591e-05
65 *443:41 *497:81 0.000161056
66 *443:62 *497:71 0.000161121
67 *443:87 *497:50 2.34364e-05
68 *444:31 *497:75 0.000803707
69 *444:44 *497:50 0
70 *444:44 *497:58 0
71 *444:122 *1603:A2 1.53833e-05
72 *444:122 *497:71 6.4393e-05
73 *445:23 *1622:A1 0
74 *445:23 *1675:A1 0
75 *445:27 *497:25 0.000180218
76 *454:73 *1622:A1 5.79427e-05
77 *454:73 *1627:A 0.000109745
78 *454:73 *1675:A1 0.000191148
79 *454:73 *497:81 5.3304e-05
80 *492:53 *1627:A 0.000139346
81 *492:53 *1675:A1 0
*RES
1 *2065:X *497:6 36.0086 
2 *497:6 *497:14 34.9093 
3 *497:14 *1699:B2 23 
4 *497:14 *497:25 8.03714 
5 *497:25 *1604:B 28.7586 
6 *497:25 *1698:B 23 
7 *1604:B *497:50 47.6943 
8 *497:50 *497:58 20.1579 
9 *497:58 *1605:B 23 
10 *497:58 *497:71 19.3293 
11 *497:71 *497:75 26.4136 
12 *497:75 *497:81 7.33286 
13 *497:81 *1627:A 27.4329 
14 *497:81 *497:90 15 
15 *497:90 *1675:A1 43.51 
16 *497:90 *1622:A1 41.3143 
17 *497:75 *1610:A 23 
18 *497:71 *1603:A2 38.3521 
19 *497:50 *1609:A 38.6214 
*END

*D_NET *498 0.000839302
*CONN
*I *1924:A1 I *D sky130_fd_sc_hd__a21oi_2
*I *2083:X O *D sky130_fd_sc_hd__buf_2
*CAP
1 *1924:A1 0
2 *2083:X 0.000370133
3 *498:10 0.000370133
4 *2083:A *498:10 7.24484e-05
5 *2084:A *498:10 2.65879e-05
6 *375:10 *498:10 0
7 *405:10 *498:10 0
*RES
1 *2083:X *498:10 43.7379 
2 *498:10 *1924:A1 38 
*END

*D_NET *499 0.000815013
*CONN
*I *1924:A2 I *D sky130_fd_sc_hd__a21oi_2
*I *2084:X O *D sky130_fd_sc_hd__buf_2
*CAP
1 *1924:A2 0.000190543
2 *2084:X 0.000110804
3 *499:8 0.000301347
4 *1925:A_N *1924:A2 1.76557e-05
5 *1925:B *1924:A2 0.000187129
6 *397:23 *1924:A2 7.53384e-06
7 *401:8 *499:8 0
*RES
1 *2084:X *499:8 39.9057 
2 *499:8 *1924:A2 42.4329 
*END

*D_NET *500 0.00217578
*CONN
*I *1748:B I *D sky130_fd_sc_hd__nand2b_4
*I *2085:X O *D sky130_fd_sc_hd__buf_6
*CAP
1 *1748:B 0.000148211
2 *2085:X 0.000318012
3 *500:10 0.000466223
4 *1658:C *1748:B 0
5 *1747:A2 *500:10 0.00030974
6 *2085:A *500:10 5.41385e-05
7 *121:10 *1748:B 0
8 *224:14 *1748:B 0
9 *225:12 *500:10 1.57571e-05
10 *468:6 *500:10 0
11 *468:8 *500:10 0.000863699
*RES
1 *2085:X *500:10 48.1707 
2 *500:10 *1748:B 40.61 
*END

*D_NET *501 0.00159304
*CONN
*I *1759:B I *D sky130_fd_sc_hd__nor3_2
*I *1758:A2 I *D sky130_fd_sc_hd__o21a_2
*I *2086:X O *D sky130_fd_sc_hd__buf_2
*CAP
1 *1759:B 0.000221859
2 *1758:A2 0
3 *2086:X 0.000266292
4 *501:12 0.000221859
5 *501:10 0.000266292
6 *1732:B1 *501:10 0
7 *1734:B *501:10 2.96051e-05
8 *1735:A *501:10 2.61645e-05
9 *1759:A *1759:B 0.000272984
10 *2086:A *501:10 6.31207e-05
11 *125:19 *501:10 6.17437e-06
12 *208:10 *501:10 0
13 *208:34 *1759:B 3.91386e-05
14 *211:8 *1759:B 9.67842e-05
15 *235:10 *1759:B 8.27644e-05
*RES
1 *2086:X *501:10 41.48 
2 *501:10 *501:12 15 
3 *501:12 *1758:A2 23 
4 *501:12 *1759:B 28.4271 
*END

*D_NET *502 0.00190391
*CONN
*I *1818:B I *D sky130_fd_sc_hd__xor2_2
*I *2087:X O *D sky130_fd_sc_hd__buf_6
*CAP
1 *1818:B 0.000166788
2 *2087:X 0.000425518
3 *502:8 0.000592306
4 *1813:A *502:8 1.5769e-05
5 *1813:B *502:8 9.75779e-05
6 *1816:A *1818:B 0.000114645
7 *293:22 *1818:B 0
8 *294:8 *1818:B 4.16775e-05
9 *294:31 *502:8 4.6595e-05
10 *340:10 *1818:B 0.000403033
*RES
1 *2087:X *502:8 45.2914 
2 *502:8 *1818:B 20.4271 
*END

*D_NET *503 0.000278037
*CONN
*I *1907:B I *D sky130_fd_sc_hd__xnor2_2
*I *2088:X O *D sky130_fd_sc_hd__buf_6
*CAP
1 *1907:B 0
2 *2088:X 0.000104591
3 *503:8 0.000104591
4 *1927:A1 *503:8 6.88552e-05
*RES
1 *2088:X *503:8 40.61 
2 *503:8 *1907:B 38 
*END

*D_NET *504 0.000611246
*CONN
*I *1923:B I *D sky130_fd_sc_hd__xor2_2
*I *2089:X O *D sky130_fd_sc_hd__buf_2
*CAP
1 *1923:B 0
2 *2089:X 0.000212057
3 *504:8 0.000212057
4 *383:31 *504:8 0.000176893
5 *404:24 *504:8 1.02387e-05
*RES
1 *2089:X *504:8 43.075 
2 *504:8 *1923:B 15 
*END

*D_NET *505 0.000638136
*CONN
*I *1751:A2 I *D sky130_fd_sc_hd__o21ai_4
*I *2090:X O *D sky130_fd_sc_hd__buf_2
*CAP
1 *1751:A2 0
2 *2090:X 0.000224805
3 *505:10 0.000224805
4 *228:8 *505:10 0.000188526
*RES
1 *2090:X *505:10 27.9507 
2 *505:10 *1751:A2 23 
*END

*D_NET *506 0.0173116
*CONN
*I *1781:B I *D sky130_fd_sc_hd__and4_2
*I *1697:A I *D sky130_fd_sc_hd__nand2_2
*I *1698:C I *D sky130_fd_sc_hd__nand4_2
*I *1699:A2 I *D sky130_fd_sc_hd__a22o_2
*I *1604:D I *D sky130_fd_sc_hd__and4_2
*I *1609:C I *D sky130_fd_sc_hd__and4_2
*I *1605:D I *D sky130_fd_sc_hd__nand4_2
*I *1603:B2 I *D sky130_fd_sc_hd__a22o_2
*I *1610:C I *D sky130_fd_sc_hd__nand4_2
*I *1622:B1 I *D sky130_fd_sc_hd__a22o_2
*I *2066:X O *D sky130_fd_sc_hd__clkbuf_2
*CAP
1 *1781:B 0
2 *1697:A 0.000256983
3 *1698:C 0
4 *1699:A2 0.000151563
5 *1604:D 0.000175756
6 *1609:C 4.24857e-05
7 *1605:D 7.43261e-05
8 *1603:B2 0
9 *1610:C 9.10509e-05
10 *1622:B1 0.000248545
11 *2066:X 0.000743961
12 *506:118 0.000308101
13 *506:96 0.000151563
14 *506:36 0.000637019
15 *506:30 0.000411686
16 *506:24 0.000324401
17 *506:22 0.000352166
18 *506:20 0.00103492
19 *506:12 0.00103504
20 *506:10 0.000536766
21 *506:6 0.000879865
22 *1604:D *512:80 9.2115e-05
23 *1697:A *1781:C 5.50106e-05
24 *1697:A *512:66 4.50413e-05
25 *506:6 *512:16 0.00151854
26 *506:10 *1781:C 4.98718e-06
27 *506:20 *514:33 4.67488e-05
28 *506:22 *512:80 0.000302339
29 *1604:B *1699:A2 1.37232e-05
30 *1604:C *1604:D 9.41704e-05
31 *1605:C *1605:D 3.61695e-05
32 *1609:D *1609:C 5.50106e-05
33 *1610:D *1610:C 1.37136e-05
34 *1622:A2 *1622:B1 3.04324e-05
35 *1622:B2 *1622:B1 0.000223698
36 *1698:D *1699:A2 1.71416e-05
37 *1699:A1 *1699:A2 7.72746e-05
38 *1699:B1 *1699:A2 0.000144918
39 *1888:A2 *506:6 0.000187861
40 *1888:C1 *506:6 0.000144494
41 *84:10 *1605:D 0
42 *86:10 *506:22 0
43 *89:30 *506:36 0.000191157
44 *173:8 *1605:D 0.00018282
45 *175:10 *506:10 0.000192671
46 *175:10 *506:12 6.26252e-05
47 *258:10 *1697:A 5.67058e-05
48 *259:17 *506:10 1.01436e-05
49 *313:6 *506:6 5.41288e-05
50 *442:32 *1610:C 5.58394e-05
51 *442:32 *506:36 1.02561e-05
52 *442:36 *1622:B1 5.3304e-05
53 *442:49 *1610:C 1.67942e-05
54 *442:49 *1622:B1 2.24608e-05
55 *442:77 *506:24 0.000177816
56 *442:77 *506:30 0.00015795
57 *442:77 *506:36 0.000479741
58 *443:41 *1622:B1 6.7177e-06
59 *443:58 *1622:B1 0.000127821
60 *443:58 *506:30 5.3304e-05
61 *443:58 *506:36 0.000725851
62 *443:62 *506:24 8.62876e-05
63 *443:62 *506:30 0.000133316
64 *443:81 *506:24 0.000186025
65 *443:87 *1604:D 7.39034e-05
66 *443:87 *506:22 0.000417246
67 *443:87 *506:24 6.16531e-05
68 *444:52 *506:20 0.000513517
69 *444:67 *506:12 0.00104298
70 *444:67 *506:20 3.70187e-05
71 *444:76 *506:10 0.000398915
72 *444:76 *506:12 0.000122627
73 *445:23 *506:12 1.83564e-05
74 *445:23 *506:20 6.68793e-05
75 *445:27 *1699:A2 4.21281e-05
76 *445:51 *506:12 0.000481934
77 *445:58 *1697:A 0.000270682
78 *445:73 *1697:A 5.3304e-05
79 *497:58 *1605:D 9.58714e-05
80 *497:71 *506:30 1.12487e-05
*RES
1 *2066:X *506:6 43.155 
2 *506:6 *506:10 20.4271 
3 *506:10 *506:12 15.2871 
4 *506:12 *506:20 40.6264 
5 *506:20 *506:22 5.77929 
6 *506:22 *506:24 4.37071 
7 *506:24 *506:30 17.8793 
8 *506:30 *506:36 25.4504 
9 *506:36 *1622:B1 42.7746 
10 *506:36 *1610:C 39.7296 
11 *506:30 *1603:B2 23 
12 *506:24 *1605:D 40.5479 
13 *506:22 *1609:C 38.6214 
14 *506:20 *1604:D 40.7757 
15 *506:12 *506:96 15 
16 *506:96 *1699:A2 26.8736 
17 *506:96 *1698:C 23 
18 *506:10 *506:118 15.6214 
19 *506:118 *1697:A 28.9036 
20 *506:118 *1781:B 23 
*END

*D_NET *507 0.000278473
*CONN
*I *1870:B I *D sky130_fd_sc_hd__xor2_2
*I *2091:X O *D sky130_fd_sc_hd__buf_6
*CAP
1 *1870:B 0.000139236
2 *2091:X 0.000139236
*RES
1 *2091:X *1870:B 25.4754 
*END

*D_NET *508 0.000345821
*CONN
*I *1708:B I *D sky130_fd_sc_hd__nand3_2
*I *2092:X O *D sky130_fd_sc_hd__buf_2
*CAP
1 *1708:B 0.00017291
2 *2092:X 0.00017291
*RES
1 *2092:X *1708:B 48.9 
*END

*D_NET *509 0.000382399
*CONN
*I *1690:D I *D sky130_fd_sc_hd__nand4_2
*I *2093:X O *D sky130_fd_sc_hd__buf_2
*CAP
1 *1690:D 0
2 *2093:X 0.000159524
3 *509:10 0.000159524
4 *1776:A *509:10 5.72749e-05
5 *166:8 *509:10 6.07611e-06
6 *439:81 *509:10 0
*RES
1 *2093:X *509:10 40.5271 
2 *509:10 *1690:D 38 
*END

*D_NET *510 0.000505904
*CONN
*I *1881:A2 I *D sky130_fd_sc_hd__a21oi_2
*I *2094:X O *D sky130_fd_sc_hd__buf_2
*CAP
1 *1881:A2 0.00017382
2 *2094:X 0.00017382
3 *1842:B *1881:A2 2.98648e-05
4 *2094:A *1881:A2 0.000128401
*RES
1 *2094:X *1881:A2 49.9771 
*END

*D_NET *511 0.0023912
*CONN
*I *1745:A2 I *D sky130_fd_sc_hd__o21ai_2
*I *2095:X O *D sky130_fd_sc_hd__buf_2
*CAP
1 *1745:A2 0.000590648
2 *2095:X 0.000128829
3 *511:8 0.000719477
4 *1746:C1 *1745:A2 0.000352415
5 *1817:B1 *1745:A2 0.000110798
6 *223:6 *1745:A2 5.50049e-05
7 *294:8 *511:8 0.000107031
8 *340:10 *511:8 0.000326992
*RES
1 *2095:X *511:8 42.3707 
2 *511:8 *1745:A2 48.9993 
*END

*D_NET *512 0.0123783
*CONN
*I *1700:A2 I *D sky130_fd_sc_hd__a22o_2
*I *1701:B I *D sky130_fd_sc_hd__nand4_2
*I *1607:B I *D sky130_fd_sc_hd__and2_2
*I *1823:A1 I *D sky130_fd_sc_hd__a22o_2
*I *1782:B I *D sky130_fd_sc_hd__nand2_2
*I *1781:C I *D sky130_fd_sc_hd__and4_2
*I *2067:X O *D sky130_fd_sc_hd__dlymetal6s2s_1
*CAP
1 *1700:A2 7.61763e-05
2 *1701:B 0
3 *1607:B 0
4 *1823:A1 0
5 *1782:B 0.000127876
6 *1781:C 0.000420721
7 *2067:X 0.000306901
8 *512:80 0.000581742
9 *512:70 0.000704049
10 *512:68 0.000537581
11 *512:66 0.000573408
12 *512:50 0.000122615
13 *512:33 0.000412755
14 *512:16 0.001559
15 *512:10 0.00151723
16 *512:68 *514:14 0.000167452
17 *512:68 *514:33 0.000241091
18 *512:80 *514:33 7.55698e-05
19 *1604:C *512:80 2.43944e-05
20 *1604:D *512:80 9.2115e-05
21 *1697:A *1781:C 5.50106e-05
22 *1697:A *512:66 4.50413e-05
23 *1700:B2 *512:68 0
24 *1700:B2 *512:70 0
25 *1700:B2 *512:80 0
26 *1703:A2 *512:68 1.01436e-05
27 *1703:A2 *512:70 0.000130433
28 *1783:B1 *1781:C 0.000243847
29 *1784:A *512:68 0
30 *1785:A *512:68 1.37246e-05
31 *1823:B2 *512:50 0.00025214
32 *1834:A *512:10 0.000140671
33 *174:14 *512:80 0
34 *175:10 *1781:C 0.000382564
35 *175:10 *512:66 0.000354122
36 *176:8 *512:80 0
37 *177:10 *512:80 0
38 *178:8 *1700:A2 5.41288e-05
39 *179:22 *512:70 6.38845e-05
40 *179:22 *512:80 3.92407e-05
41 *256:14 *1700:A2 2.53321e-05
42 *258:10 *1781:C 0.000138718
43 *259:6 *1782:B 1.24376e-05
44 *259:6 *512:33 5.3304e-05
45 *259:17 *1781:C 1.83564e-05
46 *259:17 *512:33 4.85126e-05
47 *259:17 *512:50 6.16439e-05
48 *259:34 *512:33 8.43466e-05
49 *262:8 *512:68 0
50 *299:8 *512:50 1.02387e-05
51 *300:10 *512:50 9.27917e-05
52 *309:18 *512:10 6.02277e-06
53 *310:8 *512:10 6.16439e-05
54 *311:18 *512:10 9.98995e-05
55 *443:87 *512:80 1.12487e-05
56 *443:112 *512:80 8.4327e-05
57 *444:76 *512:50 6.38845e-05
58 *445:58 *512:66 0.000270682
59 *445:73 *1781:C 0
60 *445:73 *512:33 0
61 *445:73 *512:50 0
62 *445:73 *512:66 4.2573e-05
63 *445:95 *512:50 1.14452e-05
64 *497:50 *512:80 2.93747e-05
65 *506:6 *512:16 0.00151854
66 *506:10 *1781:C 4.98718e-06
67 *506:22 *512:80 0.000302339
*RES
1 *2067:X *512:10 45.1464 
2 *512:10 *512:16 48.2493 
3 *512:16 *1781:C 44.4007 
4 *512:16 *512:33 18.1279 
5 *512:33 *1782:B 25.0714 
6 *512:33 *512:50 34.5157 
7 *512:50 *1823:A1 23 
8 *1781:C *512:66 44.3593 
9 *512:66 *512:68 8.59643 
10 *512:68 *512:70 2.61 
11 *512:70 *512:80 41.6207 
12 *512:80 *1607:B 38 
13 *512:70 *1701:B 38 
14 *512:68 *1700:A2 39.7814 
*END

*D_NET *513 0.00269652
*CONN
*I *1623:B1 I *D sky130_fd_sc_hd__a22o_2
*I *1612:C I *D sky130_fd_sc_hd__nand4_2
*I *1613:B2 I *D sky130_fd_sc_hd__a22oi_2
*I *2096:X O *D sky130_fd_sc_hd__buf_2
*CAP
1 *1623:B1 0
2 *1612:C 0
3 *1613:B2 1.15232e-05
4 *2096:X 0.000287594
5 *513:36 0.000101009
6 *513:23 0.000247345
7 *513:10 0.000157859
8 *513:8 0.000287594
9 *1612:B *513:23 1.37232e-05
10 *1612:B *513:36 2.02872e-05
11 *1612:D *513:23 0.000144501
12 *1613:B1 *513:23 1.37232e-05
13 *92:8 *513:8 0.000169674
14 *93:19 *513:8 0
15 *438:67 *513:8 0
16 *439:32 *513:36 0.000163352
17 *439:34 *1613:B2 2.32004e-05
18 *439:34 *513:23 0.000577189
19 *439:40 *513:8 0
20 *439:49 *513:8 0
21 *440:25 *513:8 0
22 *441:19 *513:8 0
23 *454:43 *1613:B2 5.67058e-05
24 *454:43 *513:23 0.000229217
25 *454:43 *513:36 5.3304e-05
26 *454:49 *513:36 0.000138718
*RES
1 *2096:X *513:8 43.075 
2 *513:8 *513:10 15 
3 *513:10 *1613:B2 23.6214 
4 *513:10 *513:23 7.33286 
5 *513:23 *1612:C 23 
6 *513:23 *513:36 32.8793 
7 *513:36 *1623:B1 23 
*END

*D_NET *514 0.0099245
*CONN
*I *1824:B I *D sky130_fd_sc_hd__nand2_2
*I *1823:B1 I *D sky130_fd_sc_hd__a22o_2
*I *1879:B I *D sky130_fd_sc_hd__and3_2
*I *1696:B I *D sky130_fd_sc_hd__nand2_2
*I *1784:B I *D sky130_fd_sc_hd__nand2_2
*I *2068:X O *D sky130_fd_sc_hd__clkdlybuf4s25_1
*CAP
1 *1824:B 0
2 *1823:B1 0.000148473
3 *1879:B 0
4 *1696:B 0
5 *1784:B 0.000273677
6 *2068:X 0.000550837
7 *514:70 0.000262531
8 *514:51 0.000606752
9 *514:42 0.000280841
10 *514:33 0.000723245
11 *514:14 0.00138065
12 *514:10 0.000761003
13 *514:8 0.000843019
14 *1696:A *514:33 9.58714e-05
15 *1703:A2 *514:33 0.000141879
16 *1785:A *514:14 0.000379422
17 *1785:B *1784:B 9.84851e-05
18 *1786:B *514:14 0
19 *1827:B *514:10 9.26098e-05
20 *1827:B *514:14 0.000130424
21 *1882:B *514:8 3.7122e-06
22 *1911:A1 *514:70 0
23 *1911:B1 *514:70 5.3304e-05
24 *24:9 *514:8 2.30292e-05
25 *83:8 *514:33 0.000191157
26 *178:23 *514:33 7.69935e-05
27 *179:22 *514:33 8.94394e-05
28 *257:10 *514:33 0
29 *259:34 *514:10 5.61714e-05
30 *259:34 *514:14 5.561e-05
31 *260:10 *514:14 0.000166513
32 *261:6 *1784:B 5.50049e-05
33 *262:8 *514:33 0
34 *300:10 *514:70 0.000188926
35 *302:10 *514:14 0.000410379
36 *303:8 *514:10 5.15908e-05
37 *354:10 *514:10 0.000136486
38 *354:10 *514:70 0
39 *366:8 *514:70 4.56101e-05
40 *387:18 *1823:B1 4.21378e-05
41 *387:18 *514:42 2.13733e-05
42 *387:18 *514:51 0.000224795
43 *443:87 *514:33 0.000161121
44 *443:112 *514:33 5.50509e-05
45 *445:73 *514:14 0.00010357
46 *445:87 *1823:B1 5.86344e-05
47 *445:87 *514:51 9.84851e-05
48 *445:87 *514:70 2.96154e-05
49 *445:95 *1823:B1 3.72369e-05
50 *497:50 *514:33 0.000187977
51 *506:20 *514:33 4.67488e-05
52 *512:68 *514:14 0.000167452
53 *512:68 *514:33 0.000241091
54 *512:80 *514:33 7.55698e-05
*RES
1 *2068:X *514:8 45.2914 
2 *514:8 *514:10 5.77929 
3 *514:10 *514:14 27.8221 
4 *514:14 *1784:B 27.8057 
5 *514:14 *514:33 47.255 
6 *514:33 *1696:B 23 
7 *514:10 *514:42 16.0979 
8 *514:42 *1879:B 23 
9 *514:42 *514:51 4.80571 
10 *514:51 *1823:B1 25.5479 
11 *514:51 *514:70 35.1579 
12 *514:70 *1824:B 23 
*END

*D_NET *515 0.00803869
*CONN
*I *1967:B I *D sky130_fd_sc_hd__and2_2
*I *1950:B1 I *D sky130_fd_sc_hd__a211o_2
*I *2034:X O *D sky130_fd_sc_hd__dlygate4sd3_1
*CAP
1 *1967:B 0.00103155
2 *1950:B1 2.20029e-05
3 *2034:X 0
4 *515:27 0.00132839
5 *515:10 0.00144684
6 *515:4 0.00172168
7 *515:10 *516:10 5.45887e-05
8 *515:27 *522:21 0.000115289
9 *1950:A1 *515:10 1.05441e-05
10 *1950:C1 *1950:B1 7.53384e-06
11 *1967:A *1967:B 0.000438462
12 *2007:CLK *515:10 3.71228e-05
13 *2009:D *1967:B 1.64354e-05
14 *2014:A *515:10 2.6214e-05
15 *3:14 *515:10 0
16 *54:20 *515:10 0.0003929
17 *60:10 *515:10 3.30361e-05
18 *407:34 *515:10 0
19 *416:25 *515:27 8.4047e-05
20 *418:81 *515:10 6.64697e-06
21 *418:81 *515:27 1.73399e-05
22 *419:8 *515:10 0.000621611
23 *419:24 *515:10 2.04774e-05
24 *419:33 *515:10 4.83838e-05
25 *423:35 *1950:B1 2.93747e-05
26 *431:10 *515:10 2.73039e-05
27 *434:10 *1967:B 5.50106e-05
28 *471:10 *515:10 0.000108681
29 *472:10 *1950:B1 1.65699e-05
30 *472:31 *515:10 0
31 *491:35 *515:27 0.000320651
*RES
1 *2034:X *515:4 23 
2 *515:4 *515:10 38.2829 
3 *515:10 *1950:B1 38.6214 
4 *515:4 *515:27 36.4214 
5 *515:27 *1967:B 40.3171 
*END

*D_NET *516 0.000670457
*CONN
*I *2001:D I *D sky130_fd_sc_hd__dfxtp_2
*I *2035:X O *D sky130_fd_sc_hd__dlygate4sd3_1
*CAP
1 *2001:D 3.13234e-05
2 *2035:X 0.000142703
3 *516:10 0.000174026
4 *1601:A *2001:D 8.3014e-05
5 *419:24 *516:10 0.000163692
6 *491:91 *2001:D 2.11102e-05
7 *515:10 *516:10 5.45887e-05
*RES
1 *2035:X *516:10 40.6514 
2 *516:10 *2001:D 38.9373 
*END

*D_NET *517 0.00408892
*CONN
*I *1938:A I *D sky130_fd_sc_hd__and2_2
*I *1952:A I *D sky130_fd_sc_hd__or4_2
*I *2036:X O *D sky130_fd_sc_hd__dlygate4sd3_1
*CAP
1 *1938:A 1.91513e-05
2 *1952:A 0
3 *2036:X 0.000395885
4 *517:20 0.000613181
5 *517:8 0.000989914
6 *517:20 *526:18 0.000789912
7 *517:20 *528:10 0.000576938
8 *54:20 *517:20 7.31339e-05
9 *430:10 *517:20 0
10 *493:37 *1938:A 5.67058e-05
11 *493:37 *517:8 0.000574102
*RES
1 *2036:X *517:8 44.3386 
2 *517:8 *517:20 42.6918 
3 *517:20 *1952:A 23 
4 *2036:X *1938:A 46.6214 
*END

*D_NET *518 0.00255499
*CONN
*I *1955:A I *D sky130_fd_sc_hd__or2_2
*I *1940:B I *D sky130_fd_sc_hd__and2_2
*I *2037:X O *D sky130_fd_sc_hd__dlygate4sd3_1
*CAP
1 *1955:A 0.000594666
2 *1940:B 0.000409321
3 *2037:X 0
4 *518:6 0.00100399
5 *1940:B *1947:B 0
6 *1940:B *1948:B 0
7 *57:8 *1940:B 0.000138886
8 *409:14 *1955:A 0.00040813
*RES
1 *2037:X *518:6 38 
2 *518:6 *1940:B 45.6021 
3 *518:6 *1955:A 49.2479 
*END

*D_NET *519 0.0105188
*CONN
*I *1666:A1 I *D sky130_fd_sc_hd__a22o_2
*I *1678:A I *D sky130_fd_sc_hd__and3_2
*I *1654:A I *D sky130_fd_sc_hd__nand4_2
*I *1934:A1 I *D sky130_fd_sc_hd__a21oi_2
*I *1648:A2 I *D sky130_fd_sc_hd__a22o_2
*I *1653:A I *D sky130_fd_sc_hd__and4_2
*I *1730:A I *D sky130_fd_sc_hd__and3_2
*I *1646:A I *D sky130_fd_sc_hd__and3_2
*I *1731:A1 I *D sky130_fd_sc_hd__a21oi_2
*I *2069:X O *D sky130_fd_sc_hd__clkdlybuf4s25_1
*CAP
1 *1666:A1 6.85211e-05
2 *1678:A 0.000189535
3 *1654:A 0.000295081
4 *1934:A1 0
5 *1648:A2 0.000248271
6 *1653:A 0
7 *1730:A 0
8 *1646:A 0
9 *1731:A1 9.62008e-05
10 *2069:X 0.000174278
11 *519:95 0.000599346
12 *519:91 0.000229856
13 *519:84 0.000217498
14 *519:76 0.000264103
15 *519:51 0.000332467
16 *519:40 0.000377754
17 *519:38 0.000564422
18 *519:31 0.000305934
19 *519:12 0.000402135
20 *519:10 0.000445142
21 *1648:B1 *1648:A2 1.24376e-05
22 *1654:D *1654:A 5.50106e-05
23 *1666:A2 *1666:A1 8.23813e-05
24 *1666:B1 *1666:A1 5.58003e-05
25 *1666:B2 *1666:A1 0.000178742
26 *1666:B2 *519:91 5.58003e-05
27 *1731:B1 *1731:A1 0.000187129
28 *1737:A *1648:A2 8.27491e-05
29 *26:7 *519:10 5.26204e-05
30 *26:7 *519:38 3.95159e-06
31 *132:6 *1666:A1 1.61385e-05
32 *133:12 *1654:A 4.07902e-05
33 *145:8 *1678:A 0
34 *158:10 *1678:A 5.50049e-05
35 *209:6 *1731:A1 0.0001164
36 *209:6 *519:31 6.87362e-05
37 *209:21 *519:10 0
38 *215:6 *1648:A2 4.1677e-05
39 *383:10 *1678:A 0
40 *383:10 *519:84 7.31082e-05
41 *446:38 *519:84 0.000516236
42 *446:38 *519:91 0.000176248
43 *446:62 *1678:A 0
44 *447:35 *519:51 0.000822869
45 *447:37 *519:38 9.35072e-05
46 *447:37 *519:51 0.000133316
47 *447:43 *1731:A1 0.00031495
48 *447:43 *519:38 0.000108682
49 *447:113 *1666:A1 0.000269781
50 *447:113 *519:51 3.46013e-05
51 *447:113 *519:84 5.50106e-05
52 *447:113 *519:91 0.000226295
53 *448:49 *1648:A2 0.000133316
54 *448:49 *519:38 3.83059e-05
55 *450:10 *519:84 1.37349e-05
56 *455:49 *1648:A2 3.70187e-05
57 *455:49 *519:51 0.000824882
58 *455:60 *1666:A1 2.2957e-05
59 *455:68 *1654:A 5.50049e-05
60 *455:68 *519:95 0
61 *465:61 *519:31 0.000185434
62 *465:63 *519:31 0
63 *480:12 *1648:A2 2.49836e-05
64 *480:12 *519:10 2.76611e-06
65 *480:12 *519:31 0.000139657
66 *480:12 *519:38 0.000108163
67 *480:12 *519:95 0.000192087
*RES
1 *2069:X *519:10 40.8793 
2 *519:10 *519:12 15 
3 *519:12 *1731:A1 27.4329 
4 *519:12 *519:31 36.5043 
5 *519:31 *1646:A 23 
6 *519:10 *519:38 6.13143 
7 *519:38 *519:40 0.621429 
8 *519:40 *1730:A 38 
9 *519:40 *519:51 28.1743 
10 *519:51 *1653:A 23 
11 *519:38 *1648:A2 42.8523 
12 *1653:A *519:76 23 
13 *519:76 *519:84 36.4421 
14 *519:84 *1934:A1 23 
15 *519:76 *519:91 2.52714 
16 *519:91 *519:95 17.61 
17 *519:95 *1654:A 43.4064 
18 *519:95 *1678:A 41.2314 
19 *519:91 *1666:A1 26.9771 
*END

*D_NET *520 0.00195621
*CONN
*I *1952:C I *D sky130_fd_sc_hd__or4_2
*I *1945:B I *D sky130_fd_sc_hd__and2_2
*I *2038:X O *D sky130_fd_sc_hd__dlygate4sd3_1
*CAP
1 *1952:C 8.11812e-07
2 *1945:B 0.000145607
3 *2038:X 7.46716e-05
4 *520:16 0.000186571
5 *520:8 0.000114824
6 *1945:B *522:6 0.000187129
7 *1945:B *526:18 1.13384e-05
8 *520:8 *526:18 0.000138727
9 *520:16 *526:18 2.65767e-05
10 *1939:A *520:16 5.55676e-05
11 *1944:A *1945:B 0.000396348
12 *1944:A *520:16 3.87591e-05
13 *1967:A *520:8 4.08641e-05
14 *2040:A *1945:B 0.000230604
15 *493:94 *1945:B 0.000229104
16 *493:116 *1945:B 5.29672e-05
17 *493:116 *520:8 2.57346e-05
*RES
1 *2038:X *520:8 39.9057 
2 *520:8 *520:16 16.7711 
3 *520:16 *1945:B 31.8761 
4 *520:16 *1952:C 23.1761 
*END

*D_NET *521 0.00320945
*CONN
*I *1955:B I *D sky130_fd_sc_hd__or2_2
*I *1947:B I *D sky130_fd_sc_hd__and2_2
*I *2039:X O *D sky130_fd_sc_hd__dlygate4sd3_1
*CAP
1 *1955:B 0.000507254
2 *1947:B 0.000559749
3 *2039:X 0.000141118
4 *521:8 0.00120812
5 *1940:B *1947:B 0
6 *2026:A *1955:B 0.000277963
7 *411:8 *1955:B 0
8 *414:6 *521:8 6.60621e-05
9 *431:10 *1947:B 2.5415e-05
10 *431:10 *1955:B 2.04774e-05
11 *435:8 *1955:B 5.511e-05
12 *491:10 *1947:B 0.000348176
*RES
1 *2039:X *521:8 40.0507 
2 *521:8 *1947:B 48.7093 
3 *521:8 *1955:B 48.0879 
*END

*D_NET *522 0.00281428
*CONN
*I *1953:A I *D sky130_fd_sc_hd__nor3_2
*I *1941:B I *D sky130_fd_sc_hd__and2_2
*I *2040:X O *D sky130_fd_sc_hd__dlygate4sd3_1
*CAP
1 *1953:A 0
2 *1941:B 4.38256e-05
3 *2040:X 5.91156e-05
4 *522:21 0.000467495
5 *522:6 0.000570436
6 *1941:A *1941:B 5.41288e-05
7 *1941:A *522:6 7.88926e-05
8 *1944:A *1941:B 0.00010018
9 *1944:A *522:6 0.00039127
10 *1945:B *522:6 0.000187129
11 *2009:CLK *522:21 0
12 *56:14 *522:21 0
13 *416:25 *522:21 0.000111852
14 *416:46 *522:21 0.000245538
15 *421:35 *522:21 0
16 *424:16 *522:21 0.00025214
17 *491:35 *522:21 9.50092e-05
18 *493:94 *522:6 4.19743e-05
19 *515:27 *522:21 0.000115289
*RES
1 *2040:X *522:6 27.4329 
2 *522:6 *1941:B 24.595 
3 *522:6 *522:21 41.7657 
4 *522:21 *1953:A 23 
*END

*D_NET *523 0.00391807
*CONN
*I *1942:B I *D sky130_fd_sc_hd__and2_2
*I *1951:A2 I *D sky130_fd_sc_hd__o41a_2
*I *2041:X O *D sky130_fd_sc_hd__dlygate4sd3_1
*CAP
1 *1942:B 0.00051238
2 *1951:A2 0.000396391
3 *2041:X 0.00021859
4 *523:10 0.00112736
5 *1951:A2 *525:14 0.00066549
6 *1942:A *1942:B 0.000710012
7 *2013:A *1942:B 1.00283e-05
8 *2028:A *523:10 1.59094e-05
9 *2041:A *523:10 0
10 *3:46 *1942:B 9.55074e-07
11 *418:15 *523:10 0
12 *418:67 *523:10 0
13 *429:10 *1951:A2 0.000170834
14 *429:14 *1951:A2 6.07611e-06
15 *443:22 *523:10 8.4047e-05
*RES
1 *2041:X *523:10 41.5836 
2 *523:10 *1951:A2 48.7093 
3 *523:10 *1942:B 46.5861 
*END

*D_NET *524 0.00140333
*CONN
*I *1980:D I *D sky130_fd_sc_hd__dfxtp_2
*I *2042:X O *D sky130_fd_sc_hd__dlygate4sd3_1
*CAP
1 *1980:D 0.000288281
2 *2042:X 0.000213753
3 *524:10 0.000502033
4 *1980:D *526:10 0.000126518
5 *2044:A *1980:D 9.79925e-05
6 *421:54 *1980:D 4.72517e-05
7 *421:71 *1980:D 3.68359e-05
8 *421:71 *524:10 9.06602e-05
*RES
1 *2042:X *524:10 41.3557 
2 *524:10 *1980:D 44.235 
*END

*D_NET *525 0.00318368
*CONN
*I *1949:B I *D sky130_fd_sc_hd__and2_2
*I *2043:X O *D sky130_fd_sc_hd__dlygate4sd3_1
*CAP
1 *1949:B 0
2 *2043:X 8.71666e-05
3 *525:14 0.000720253
4 *525:8 0.00080742
5 *1951:A2 *525:14 0.00066549
6 *408:16 *525:8 0.000269775
7 *421:54 *525:14 9.66171e-05
8 *425:14 *525:8 0.000173452
9 *429:14 *525:14 7.76364e-06
10 *437:8 *525:14 0.000217134
11 *493:10 *525:14 2.08324e-05
12 *493:23 *525:14 0.000117775
*RES
1 *2043:X *525:8 41.48 
2 *525:8 *525:14 32.545 
3 *525:14 *1949:B 23 
*END

*D_NET *526 0.00371331
*CONN
*I *1946:B I *D sky130_fd_sc_hd__and2_2
*I *1952:D I *D sky130_fd_sc_hd__or4_2
*I *2044:X O *D sky130_fd_sc_hd__dlygate4sd3_1
*CAP
1 *1946:B 4.17755e-05
2 *1952:D 0
3 *2044:X 0.000261105
4 *526:18 0.000619434
5 *526:10 0.000922315
6 *1939:A *526:18 1.92164e-05
7 *1944:A *526:18 4.89757e-05
8 *1945:B *526:18 1.13384e-05
9 *1967:A *526:18 1.86945e-05
10 *1980:D *526:10 0.000126518
11 *52:8 *526:10 0.000115526
12 *408:8 *526:18 0
13 *418:67 *526:10 0.000179348
14 *418:67 *526:18 0.00019592
15 *418:81 *526:18 1.05658e-05
16 *421:71 *526:10 0.000187363
17 *425:8 *526:18 0
18 *429:27 *526:18 0
19 *430:10 *526:18 0
20 *517:20 *526:18 0.000789912
21 *520:8 *526:18 0.000138727
22 *520:16 *526:18 2.65767e-05
*RES
1 *2044:X *526:10 45.6021 
2 *526:10 *526:18 30.7014 
3 *526:18 *1952:D 23 
4 *526:10 *1946:B 38.6214 
*END

*D_NET *527 0.00293271
*CONN
*I *1953:B I *D sky130_fd_sc_hd__nor3_2
*I *1948:B I *D sky130_fd_sc_hd__and2_2
*I *2045:X O *D sky130_fd_sc_hd__dlygate4sd3_1
*CAP
1 *1953:B 0.000318007
2 *1948:B 0.000386141
3 *2045:X 0.000193486
4 *527:8 0.000897634
5 *1940:B *1948:B 0
6 *1964:C *1953:B 9.62666e-05
7 *50:10 *1948:B 0.000300287
8 *57:8 *1948:B 0
9 *408:16 *1953:B 6.27878e-05
10 *409:8 *1953:B 9.84851e-05
11 *416:25 *527:8 0.000273273
12 *418:81 *1953:B 1.09783e-05
13 *419:10 *1948:B 2.50756e-05
14 *419:10 *1953:B 4.15888e-05
15 *419:16 *1948:B 8.96322e-05
16 *419:91 *1953:B 9.90641e-05
17 *434:10 *1948:B 7.75329e-06
18 *491:31 *1948:B 3.22467e-05
19 *491:35 *1948:B 0
20 *491:35 *1953:B 0
*RES
1 *2045:X *527:8 41.0036 
2 *527:8 *1948:B 46.2236 
3 *527:8 *1953:B 44.9186 
*END

*D_NET *528 0.00173029
*CONN
*I *1939:B I *D sky130_fd_sc_hd__and2_2
*I *2046:X O *D sky130_fd_sc_hd__dlygate4sd3_1
*CAP
1 *1939:B 0
2 *2046:X 0.000576678
3 *528:10 0.000576678
4 *54:10 *528:10 0
5 *407:18 *528:10 0
6 *421:8 *528:10 0
7 *430:10 *528:10 0
8 *517:20 *528:10 0.000576938
*RES
1 *2046:X *528:10 48.4193 
2 *528:10 *1939:B 38 
*END

*D_NET *529 0.0012609
*CONN
*I *1978:A I *D sky130_fd_sc_hd__and2_2
*I *2047:X O *D sky130_fd_sc_hd__dlygate4sd3_1
*CAP
1 *1978:A 0
2 *2047:X 0.000260652
3 *529:8 0.000260652
4 *1976:B *529:8 1.14452e-05
5 *2047:A *529:8 0
6 *446:14 *529:8 0.000169683
7 *448:14 *529:8 0
8 *494:45 *529:8 0.00037336
9 *494:47 *529:8 0.000185104
*RES
1 *2047:X *529:8 45.54 
2 *529:8 *1978:A 38 
*END
